     Program PWSCF v.6.2 (svn rev. 13949:13950) starts on 23Oct2021 at 13:14:42

     R & G space division:  proc/nbgrp/npool/nimage =       4
     Reading input from NaCl-001.in

     Current dimensions of program PWSCF are:
     Max number of different atomic species (ntypx) = 10
     Max number of k-points (npk) =  40000
     Max angular momentum in pseudopotentials (lmaxx) =  3
     Message from routine iosys:
     minimal I/O required, wf_collect reset to FALSE
               file Na.pbe-spn-kjpaw_psl.0.2.UPF: wavefunction(s)  2P 3P renormalized
               file Cl.pbe-n-kjpaw_psl.0.1.UPF: wavefunction(s)  3S 3P renormalized

     Subspace diagonalization in iterative solution of the eigenvalue problem:
     a serial algorithm will be used

     bravais-lattice index     =            0
     lattice parameter (alat)  =      21.5062  a.u.
     unit-cell volume          =    9947.0070 (a.u.)^3
     number of atoms/cell      =           64
     number of atomic types    =            2
     number of electrons       =       512.00
     number of Kohn-Sham states=          256
     kinetic-energy cutoff     =      70.0000  Ry
     charge density cutoff     =     280.0000  Ry
     convergence threshold     =      1.0E-09
     mixing beta               =       0.7000
     number of iterations used =            8  plain     mixing
     Exchange-correlation      =  SLA  PW   PBX  PBC ( 1  4  3  4 0 0)

     celldm(1)=  21.506223  celldm(2)=   0.000000  celldm(3)=   0.000000
     celldm(4)=   0.000000  celldm(5)=   0.000000  celldm(6)=   0.000000

     crystal axes: (cart. coord. in units of alat)
               a(1) = (   1.000000   0.000000   0.000000 )
               a(2) = (   0.000000   1.000000   0.000000 )
               a(3) = (   0.000000   0.000000   1.000000 )

     reciprocal axes: (cart. coord. in units 2 pi/alat)
               b(1) = (  1.000000  0.000000  0.000000 )
               b(2) = (  0.000000  1.000000  0.000000 )
               b(3) = (  0.000000  0.000000  1.000000 )

     PseudoPot. # 1 for Na read from file:
     /home/uezono/pseudo/Na.pbe-spn-kjpaw_psl.0.2.UPF
     MD5 check sum: b31cf241f857c4c21d04bf145cb1ea45
     Pseudo is Projector augmented-wave, Zval =  9.0
     Generated using "atomic" code by A. Dal Corso  v.5.0.2 svn rev. 9415
     Shape of augmentation charge: PSQ
     Using radial grid of 1121 points,  4 beta functions with:
                l(1) =   0
                l(2) =   0
                l(3) =   1
                l(4) =   1
     Q(r) pseudized with 0 coefficients

     PseudoPot. # 2 for Cl read from file:
     /home/uezono/pseudo/Cl.pbe-n-kjpaw_psl.0.1.UPF
     MD5 check sum: 0988cc5665377067f4339999778e3894
     Pseudo is Projector augmented-wave + core cor, Zval =  7.0
     Generated using "atomic" code by A. Dal Corso  v.5.0.2 svn rev. 9415
     Shape of augmentation charge: PSQ
     Using radial grid of 1157 points,  4 beta functions with:
                l(1) =   0
                l(2) =   0
                l(3) =   1
                l(4) =   1
     Q(r) pseudized with 0 coefficients

     atomic species   valence    mass     pseudopotential
        Na             9.00    22.98977     Na( 1.00)
        Cl             7.00    35.45300     Cl( 1.00)

      8 Sym. Ops. (no inversion) found

   Cartesian axes

     site n.     atom                  positions (alat units)
         1           Na  tau(   1) = (   0.0009300   0.0000000   0.0000000  )
         2           Na  tau(   2) = (   0.5000000   0.0000000   0.0000000  )
         3           Na  tau(   3) = (   0.0000000   0.5000000   0.0000000  )
         4           Na  tau(   4) = (   0.5000000   0.5000000   0.0000000  )
         5           Na  tau(   5) = (   0.0000000   0.0000000   0.5000000  )
         6           Na  tau(   6) = (   0.5000000   0.0000000   0.5000000  )
         7           Na  tau(   7) = (   0.0000000   0.5000000   0.5000000  )
         8           Na  tau(   8) = (   0.5000000   0.5000000   0.5000000  )
         9           Na  tau(   9) = (   0.0000000   0.2500000   0.2500000  )
        10           Na  tau(  10) = (   0.5000000   0.2500000   0.2500000  )
        11           Na  tau(  11) = (   0.0000000   0.7500000   0.2500000  )
        12           Na  tau(  12) = (   0.5000000   0.7500000   0.2500000  )
        13           Na  tau(  13) = (   0.0000000   0.2500000   0.7500000  )
        14           Na  tau(  14) = (   0.5000000   0.2500000   0.7500000  )
        15           Na  tau(  15) = (   0.0000000   0.7500000   0.7500000  )
        16           Na  tau(  16) = (   0.5000000   0.7500000   0.7500000  )
        17           Na  tau(  17) = (   0.2500000   0.0000000   0.2500000  )
        18           Na  tau(  18) = (   0.7500000   0.0000000   0.2500000  )
        19           Na  tau(  19) = (   0.2500000   0.5000000   0.2500000  )
        20           Na  tau(  20) = (   0.7500000   0.5000000   0.2500000  )
        21           Na  tau(  21) = (   0.2500000   0.0000000   0.7500000  )
        22           Na  tau(  22) = (   0.7500000   0.0000000   0.7500000  )
        23           Na  tau(  23) = (   0.2500000   0.5000000   0.7500000  )
        24           Na  tau(  24) = (   0.7500000   0.5000000   0.7500000  )
        25           Na  tau(  25) = (   0.2500000   0.2500000   0.0000000  )
        26           Na  tau(  26) = (   0.7500000   0.2500000   0.0000000  )
        27           Na  tau(  27) = (   0.2500000   0.7500000   0.0000000  )
        28           Na  tau(  28) = (   0.7500000   0.7500000   0.0000000  )
        29           Na  tau(  29) = (   0.2500000   0.2500000   0.5000000  )
        30           Na  tau(  30) = (   0.7500000   0.2500000   0.5000000  )
        31           Na  tau(  31) = (   0.2500000   0.7500000   0.5000000  )
        32           Na  tau(  32) = (   0.7500000   0.7500000   0.5000000  )
        33           Cl  tau(  33) = (   0.2500000   0.2500000   0.2500000  )
        34           Cl  tau(  34) = (   0.7500000   0.2500000   0.2500000  )
        35           Cl  tau(  35) = (   0.2500000   0.7500000   0.2500000  )
        36           Cl  tau(  36) = (   0.7500000   0.7500000   0.2500000  )
        37           Cl  tau(  37) = (   0.2500000   0.2500000   0.7500000  )
        38           Cl  tau(  38) = (   0.7500000   0.2500000   0.7500000  )
        39           Cl  tau(  39) = (   0.2500000   0.7500000   0.7500000  )
        40           Cl  tau(  40) = (   0.7500000   0.7500000   0.7500000  )
        41           Cl  tau(  41) = (   0.2500000   0.0000000   0.0000000  )
        42           Cl  tau(  42) = (   0.7500000   0.0000000   0.0000000  )
        43           Cl  tau(  43) = (   0.2500000   0.5000000   0.0000000  )
        44           Cl  tau(  44) = (   0.7500000   0.5000000   0.0000000  )
        45           Cl  tau(  45) = (   0.2500000   0.0000000   0.5000000  )
        46           Cl  tau(  46) = (   0.7500000   0.0000000   0.5000000  )
        47           Cl  tau(  47) = (   0.2500000   0.5000000   0.5000000  )
        48           Cl  tau(  48) = (   0.7500000   0.5000000   0.5000000  )
        49           Cl  tau(  49) = (   0.0000000   0.2500000   0.0000000  )
        50           Cl  tau(  50) = (   0.5000000   0.2500000   0.0000000  )
        51           Cl  tau(  51) = (   0.0000000   0.7500000   0.0000000  )
        52           Cl  tau(  52) = (   0.5000000   0.7500000   0.0000000  )
        53           Cl  tau(  53) = (   0.0000000   0.2500000   0.5000000  )
        54           Cl  tau(  54) = (   0.5000000   0.2500000   0.5000000  )
        55           Cl  tau(  55) = (   0.0000000   0.7500000   0.5000000  )
        56           Cl  tau(  56) = (   0.5000000   0.7500000   0.5000000  )
        57           Cl  tau(  57) = (   0.0000000   0.0000000   0.2500000  )
        58           Cl  tau(  58) = (   0.5000000   0.0000000   0.2500000  )
        59           Cl  tau(  59) = (   0.0000000   0.5000000   0.2500000  )
        60           Cl  tau(  60) = (   0.5000000   0.5000000   0.2500000  )
        61           Cl  tau(  61) = (   0.0000000   0.0000000   0.7500000  )
        62           Cl  tau(  62) = (   0.5000000   0.0000000   0.7500000  )
        63           Cl  tau(  63) = (   0.0000000   0.5000000   0.7500000  )
        64           Cl  tau(  64) = (   0.5000000   0.5000000   0.7500000  )

     number of k points=     1
                       cart. coord. in units 2pi/alat
        k(    1) = (   0.2500000   0.2500000   0.2500000), wk =   2.0000000

     Check: negative/imaginary core charge=   -0.000005    0.000000

     Initial potential from superposition of free atoms

     starting charge  495.97294, renormalised to  512.00000
     Starting wfc are  384 randomized atomic wfcs
     Checking if some PAW data can be deallocated...

     Self-consistent Calculation

     iteration #  1     ecut=    70.00 Ry     beta= 0.70
     Davidson diagonalization with overlap
     ethr =  1.00E-02,  avg # of iterations =  1.0

     total energy              =   -6041.20850750 Ry
     Harris-Foulkes estimate   =   -6045.69686356 Ry
     estimated scf accuracy    <       5.28771047 Ry

[...]

     total energy              =   -6043.24991730 Ry
     Harris-Foulkes estimate   =   -6043.24991731 Ry
     estimated scf accuracy    <          4.8E-09 Ry

     iteration # 10     ecut=    70.00 Ry     beta= 0.70
     Davidson diagonalization with overlap
     ethr =  9.36E-13,  avg # of iterations =  4.0

     End of self-consistent calculation

          k = 0.2500 0.2500 0.2500 ( 98322 PWs)   bands (ev):

   -48.1203 -48.1202 -48.1202 -48.1200 -48.1188 -48.1186 -48.1186 -48.1185
   -48.1184 -48.1182 -48.1182 -48.1182 -48.1182 -48.1182 -48.1181 -48.1181
   -48.1181 -48.1181 -48.1180 -48.1180 -48.1180 -48.1180 -48.1179 -48.1179
   -48.1177 -48.1176 -48.1176 -48.1175 -48.1162 -48.1161 -48.1161 -48.1160
   -20.0531 -20.0530 -20.0530 -20.0515 -20.0488 -20.0487 -20.0485 -20.0484
   -20.0484 -20.0483 -20.0482 -20.0481 -20.0479 -20.0471 -20.0466 -20.0466
   -20.0462 -20.0460 -20.0456 -20.0455 -20.0455 -20.0453 -20.0452 -20.0450
   -20.0449 -20.0448 -20.0447 -20.0445 -20.0403 -20.0403 -20.0403 -20.0402
   -20.0402 -20.0401 -20.0396 -20.0395 -20.0394 -20.0391 -20.0391 -20.0389
   -20.0381 -20.0380 -20.0379 -20.0368 -20.0366 -20.0365 -20.0365 -20.0364
   -20.0362 -20.0361 -20.0361 -20.0360 -20.0358 -20.0358 -20.0357 -20.0356
   -20.0354 -20.0351 -20.0347 -20.0346 -20.0345 -20.0342 -20.0341 -20.0340
   -20.0338 -20.0338 -20.0335 -20.0335 -20.0332 -20.0332 -20.0331 -20.0328
   -20.0327 -20.0327 -20.0327 -20.0326 -20.0326 -20.0325 -20.0322 -20.0321
   -20.0320 -20.0320 -20.0317 -20.0315 -20.0315 -20.0313 -20.0312 -20.0311
   -20.0309 -20.0306 -20.0304 -20.0302 -20.0302 -20.0297 -20.0295 -20.0294
   -11.7140 -11.6188 -11.6179 -11.6172 -11.5458 -11.5450 -11.5443 -11.4969
   -11.4925 -11.4917 -11.4910 -11.4560 -11.4543 -11.4543 -11.4543 -11.4543
   -11.4529 -11.4431 -11.4430 -11.4429 -11.4169 -11.4160 -11.4154 -11.4102
   -11.4101 -11.4099 -11.4008 -11.3996 -11.3996 -11.3996 -11.3996 -11.3976
    -0.8874  -0.8874  -0.8874  -0.7830  -0.6659  -0.6658  -0.6658  -0.6358
    -0.6349  -0.6341  -0.6261  -0.6258  -0.6254  -0.6254  -0.6249  -0.6246
    -0.5201  -0.5201  -0.5195  -0.5195  -0.5190  -0.5190  -0.4830  -0.4824
    -0.4819  -0.4217  -0.4216  -0.4216  -0.1147  -0.1146  -0.1143  -0.1143
    -0.1140  -0.1140  -0.0591  -0.0588  -0.0585  -0.0383  -0.0381  -0.0378
     0.1489   0.1489   0.1489   0.1899   0.1901   0.1905   0.1905   0.1909
     0.1911   0.2862   0.2864   0.2869   0.2869   0.2874   0.2876   0.3165
     0.3165   0.3165   0.3739   0.3739   0.3739   0.4176   0.4176   0.4176
     0.4490   0.4494   0.4499   0.4690   0.4695   0.4700   0.4839   0.4843
     0.4847   0.4898   0.5020   0.5028   0.5030   0.5030   0.5031   0.5041
     0.5436   0.5436   0.5436   0.6285   0.6285   0.6504   0.6508   0.6512
     0.6599   0.6607   0.6616   0.6888   0.6892   0.6896   0.8041   0.8041

     highest occupied level (ev):     0.8041

!    total energy              =   -6043.24991731 Ry
     Harris-Foulkes estimate   =   -6043.24991731 Ry
     estimated scf accuracy    <          3.6E-10 Ry

     total all-electron energy =    -39940.433676 Ry

     The total energy is the sum of the following terms:

     one-electron contribution =   -2623.52364889 Ry
     hartree contribution      =    1363.88681495 Ry
     xc contribution           =    -789.46285064 Ry
     ewald contribution        =   -2182.32845247 Ry
     one-center paw contrib.   =   -1811.82178026 Ry

     convergence has been achieved in  10 iterations

     Forces acting on atoms (cartesian axes, Ry/au):

     atom    1 type  1   force =    -0.00075535    0.00000000    0.00000000
     atom    2 type  1   force =     0.00012364    0.00000000    0.00000000
     atom    3 type  1   force =    -0.00000200    0.00000000    0.00000000
     atom    4 type  1   force =     0.00000546    0.00000000    0.00000000
     atom    5 type  1   force =    -0.00000200    0.00000000    0.00000000
     atom    6 type  1   force =     0.00000546    0.00000000    0.00000000
     atom    7 type  1   force =    -0.00000770    0.00000000    0.00000000
     atom    8 type  1   force =     0.00000828    0.00000000    0.00000000
     atom    9 type  1   force =    -0.00002412   -0.00000129   -0.00000129
     atom   10 type  1   force =     0.00001768   -0.00000138   -0.00000138
     atom   11 type  1   force =    -0.00002412    0.00000129   -0.00000129
     atom   12 type  1   force =     0.00001768    0.00000138   -0.00000138
     atom   13 type  1   force =    -0.00002412   -0.00000129    0.00000129
     atom   14 type  1   force =     0.00001768   -0.00000138    0.00000138
     atom   15 type  1   force =    -0.00002412    0.00000129    0.00000129
     atom   16 type  1   force =     0.00001768    0.00000138    0.00000138
     atom   17 type  1   force =     0.00002003    0.00000000    0.00007836
     atom   18 type  1   force =     0.00002034    0.00000000   -0.00007955
     atom   19 type  1   force =    -0.00000087    0.00000000   -0.00000350
     atom   20 type  1   force =     0.00000001    0.00000000   -0.00000050
     atom   21 type  1   force =     0.00002003    0.00000000   -0.00007836
     atom   22 type  1   force =     0.00002034    0.00000000    0.00007955
     atom   23 type  1   force =    -0.00000087    0.00000000    0.00000350
     atom   24 type  1   force =     0.00000001    0.00000000    0.00000050
     atom   25 type  1   force =     0.00002003    0.00007836    0.00000000
     atom   26 type  1   force =     0.00002034   -0.00007955    0.00000000
     atom   27 type  1   force =     0.00002003   -0.00007836    0.00000000
     atom   28 type  1   force =     0.00002034    0.00007955    0.00000000
     atom   29 type  1   force =    -0.00000087   -0.00000350    0.00000000
     atom   30 type  1   force =     0.00000001   -0.00000050    0.00000000
     atom   31 type  1   force =    -0.00000087    0.00000350    0.00000000
     atom   32 type  1   force =     0.00000001    0.00000050    0.00000000
     atom   33 type  2   force =    -0.00000261   -0.00001669   -0.00001669
     atom   34 type  2   force =    -0.00000305    0.00001886    0.00001886
     atom   35 type  2   force =    -0.00000261    0.00001669   -0.00001669
     atom   36 type  2   force =    -0.00000305   -0.00001886    0.00001886
     atom   37 type  2   force =    -0.00000261   -0.00001669    0.00001669
     atom   38 type  2   force =    -0.00000305    0.00001886   -0.00001886
     atom   39 type  2   force =    -0.00000261    0.00001669    0.00001669
     atom   40 type  2   force =    -0.00000305   -0.00001886   -0.00001886
     atom   41 type  2   force =     0.00019866    0.00000000    0.00000000
     atom   42 type  2   force =     0.00018053    0.00000000    0.00000000
     atom   43 type  2   force =     0.00000254    0.00000000    0.00000000
     atom   44 type  2   force =     0.00000168    0.00000000    0.00000000
     atom   45 type  2   force =     0.00000254    0.00000000    0.00000000
     atom   46 type  2   force =     0.00000168    0.00000000    0.00000000
     atom   47 type  2   force =     0.00000041    0.00000000    0.00000000
     atom   48 type  2   force =    -0.00000013    0.00000000    0.00000000
     atom   49 type  2   force =     0.00007259    0.00000067    0.00000000
     atom   50 type  2   force =    -0.00004031    0.00000061    0.00000000
     atom   51 type  2   force =     0.00007259   -0.00000067    0.00000000
     atom   52 type  2   force =    -0.00004031   -0.00000061    0.00000000
     atom   53 type  2   force =     0.00000920    0.00000116    0.00000000
     atom   54 type  2   force =    -0.00000981    0.00000079    0.00000000
     atom   55 type  2   force =     0.00000920   -0.00000116    0.00000000
     atom   56 type  2   force =    -0.00000981   -0.00000079    0.00000000
     atom   57 type  2   force =     0.00007259    0.00000000    0.00000067
     atom   58 type  2   force =    -0.00004031    0.00000000    0.00000061
     atom   59 type  2   force =     0.00000920    0.00000000    0.00000116
     atom   60 type  2   force =    -0.00000981    0.00000000    0.00000079
     atom   61 type  2   force =     0.00007259    0.00000000   -0.00000067
     atom   62 type  2   force =    -0.00004031    0.00000000   -0.00000061
     atom   63 type  2   force =     0.00000920    0.00000000   -0.00000116
     atom   64 type  2   force =    -0.00000981    0.00000000   -0.00000079

     Total force =     0.000865     Total SCF correction =     0.000042

     Computing stress (Cartesian axis) and pressure

          total   stress  (Ry/bohr**3)                   (kbar)     P=    0.70
   0.00000475   0.00000000   0.00000000          0.70      0.00      0.00
   0.00000000   0.00000474   0.00000000          0.00      0.70      0.00
   0.00000000   0.00000000   0.00000474          0.00      0.00      0.70

     General routines

     Parallel routines

   This run was terminated on:  13:22:34  23Oct2021

   JOB DONE.
Note: The following floating-point exceptions are signalling: IEEE_UNDERFLOW_FLAG IEEE_DENORMAL