     Program PWSCF v.6.2 (svn rev. 13949:13950) starts on 27Oct2021 at 18:16:28

     R & G space division:  proc/nbgrp/npool/nimage =       4
     Reading input from headeradd_supercell-003.in

     Current dimensions of program PWSCF are:
     Max number of different atomic species (ntypx) = 10
     Max number of k-points (npk) =  40000
     Max angular momentum in pseudopotentials (lmaxx) =  3
     Message from routine iosys:
     minimal I/O required, wf_collect reset to FALSE
               file Bi.pbe-dn-rrkjus_psl.1.0.0.UPF: wavefunction(s)  5D renormalized
               file O.pbe-rrkjus.UPF: wavefunction(s)  2S renormalized

     Subspace diagonalization in iterative solution of the eigenvalue problem:
     a serial algorithm will be used

     bravais-lattice index     =            0
     lattice parameter (alat)  =      19.6286  a.u.
     unit-cell volume          =    8346.2129 (a.u.)^3
     number of atoms/cell      =           96
     number of atomic types    =            3
     number of electrons       =       704.00
     number of Kohn-Sham states=          352
     kinetic-energy cutoff     =      70.0000  Ry
     charge density cutoff     =     280.0000  Ry
     convergence threshold     =      1.0E-09
     mixing beta               =       0.7000
     number of iterations used =            8  plain     mixing
     Exchange-correlation      =  SLA  PW   PBE  PBE ( 1  4  3  4 0 0)

     celldm(1)=  19.628585  celldm(2)=   0.000000  celldm(3)=   0.000000
     celldm(4)=   0.000000  celldm(5)=   0.000000  celldm(6)=   0.000000

     crystal axes: (cart. coord. in units of alat)
               a(1) = (   1.000000   0.000000   0.000000 )
               a(2) = (  -0.006620   0.980010   0.000000 )
               a(3) = (   0.496690   0.490005   1.126138 )

     reciprocal axes: (cart. coord. in units 2 pi/alat)
               b(1) = (  1.000000  0.006755 -0.443995 )
               b(2) = (  0.000000  1.020397 -0.443995 )
               b(3) = (  0.000000 -0.000000  0.887990 )

     PseudoPot. # 1 for Bi read from file:
     /home/uezono/pseudo/Bi.pbe-dn-rrkjus_psl.1.0.0.UPF
     MD5 check sum: f9abe7488ae443f53c935a63d0032572
     Pseudo is Ultrasoft + core correction, Zval = 15.0
     Generated using "atomic" code by A. Dal Corso  v.6.2.2
     Using radial grid of 1283 points,  6 beta functions with:
                l(1) =   0
                l(2) =   0
                l(3) =   1
                l(4) =   1
                l(5) =   2
                l(6) =   2
     Q(r) pseudized with 0 coefficients

     PseudoPot. # 2 for V  read from file:
     /home/uezono/pseudo/V.pbe-n-van.UPF
     MD5 check sum: ff5646be6093ca757d9525862f4bfff1
     Pseudo is Ultrasoft + core correction, Zval =  5.0
     Generated by new atomic code, or converted to UPF format
     Using radial grid of  853 points,  6 beta functions with:
                l(1) =   0
                l(2) =   0
                l(3) =   1
                l(4) =   1
                l(5) =   2
                l(6) =   2
     Q(r) pseudized with  8 coefficients,  rinner =    1.000   1.000   1.000
                                                       1.000   1.000

     PseudoPot. # 3 for O  read from file:
     /home/uezono/pseudo/O.pbe-rrkjus.UPF
     MD5 check sum: fadcf19ee70a498d3030e2e79cf929a4
     Pseudo is Ultrasoft, Zval =  6.0
     Generated by new atomic code, or converted to UPF format
     Using radial grid of 1269 points,  4 beta functions with:
                l(1) =   0
                l(2) =   0
                l(3) =   1
                l(4) =   1
     Q(r) pseudized with 0 coefficients

     atomic species   valence    mass     pseudopotential
        Bi            15.00   208.98040     Bi( 1.00)
        V              5.00    50.94150     V ( 1.00)
        O              6.00    15.99940     O ( 1.00)

     No symmetry found

   Cartesian axes

     site n.     atom                  positions (alat units)
         1           Bi  tau(   1) = (   0.2485366   0.3675039   0.1503395  )
         2           Bi  tau(   2) = (   0.7475177   0.3675039   0.1503395  )
         3           Bi  tau(   3) = (   0.2442079   0.8575091   0.1503395  )
         4           Bi  tau(   4) = (   0.7442079   0.8575091   0.1503395  )
         5           Bi  tau(   5) = (   0.4958628   0.6125065   0.7134087  )
         6           Bi  tau(   6) = (   0.9958628   0.6125065   0.7134087  )
         7           Bi  tau(   7) = (   0.4925531   1.1025117   0.7134087  )
         8           Bi  tau(   8) = (   0.9925531   1.1025117   0.7134087  )
         9           Bi  tau(   9) = (   0.4975177   0.3675039   0.4127297  )
        10           Bi  tau(  10) = (   0.9975177   0.3675039   0.4127297  )
        11           Bi  tau(  11) = (   0.4942079   0.8575091   0.4127297  )
        12           Bi  tau(  12) = (   0.9942079   0.8575091   0.4127297  )
        13           Bi  tau(  13) = (   0.7458628   0.6125065   0.9757990  )
        14           Bi  tau(  14) = (   1.2458628   0.6125065   0.9757990  )
        15           Bi  tau(  15) = (   0.7425531   1.1025117   0.9757990  )
        16           Bi  tau(  16) = (   1.2425531   1.1025117   0.9757990  )
        17           V   tau(  17) = (   0.4991726   0.1225013   0.1463980  )
        18           V   tau(  18) = (   0.9991726   0.1225013   0.1463980  )
        19           V   tau(  19) = (   0.4958628   0.6125065   0.1463980  )
        20           V   tau(  20) = (   0.9958628   0.6125065   0.1463980  )
        21           V   tau(  21) = (   0.7475177   0.3675039   0.7094672  )
        22           V   tau(  22) = (   1.2475177   0.3675039   0.7094672  )
        23           V   tau(  23) = (   0.7442079   0.8575091   0.7094672  )
        24           V   tau(  24) = (   1.2442079   0.8575091   0.7094672  )
        25           V   tau(  25) = (   0.2458628   0.6125065   0.4166712  )
        26           V   tau(  26) = (   0.7458628   0.6125065   0.4166712  )
        27           V   tau(  27) = (   0.2425531   1.1025117   0.4166712  )
        28           V   tau(  28) = (   0.7425531   1.1025117   0.4166712  )
        29           V   tau(  29) = (   0.4942079   0.8575091   0.9797404  )
        30           V   tau(  30) = (   0.9942079   0.8575091   0.9797404  )
        31           V   tau(  31) = (   0.4908982   1.3475143   0.9797404  )
        32           V   tau(  32) = (   0.9908982   1.3475143   0.9797404  )
        33           O   tau(  33) = (   0.5715696   0.2487756   0.2344620  )
        34           O   tau(  34) = (   1.0715696   0.2487756   0.2344620  )
        35           O   tau(  35) = (   0.5682599   0.7387808   0.2344620  )
        36           O   tau(  36) = (   1.0682599   0.7387808   0.2344620  )
        37           O   tau(  37) = (   0.8199148   0.4937782   0.7975312  )
        38           O   tau(  38) = (   1.3199148   0.4937782   0.7975312  )
        39           O   tau(  39) = (   0.8166050   0.9837834   0.7975312  )
        40           O   tau(  40) = (   1.3166050   0.9837834   0.7975312  )
        41           O   tau(  41) = (   0.4234657   0.4862321   0.2344620  )
        42           O   tau(  42) = (   0.9234657   0.4862321   0.2344620  )
        43           O   tau(  43) = (   0.4201560   0.9762373   0.2344620  )
        44           O   tau(  44) = (   0.9201560   0.9762373   0.2344620  )
        45           O   tau(  45) = (   0.6718109   0.7312347   0.7975312  )
        46           O   tau(  46) = (   1.1718109   0.7312347   0.7975312  )
        47           O   tau(  47) = (   0.6685011   1.2212399   0.7975312  )
        48           O   tau(  48) = (   1.1685011   1.2212399   0.7975312  )
        49           O   tau(  49) = (   0.1734657   0.4862321   0.3286072  )
        50           O   tau(  50) = (   0.6734657   0.4862321   0.3286072  )
        51           O   tau(  51) = (   0.1701560   0.9762373   0.3286072  )
        52           O   tau(  52) = (   0.6701560   0.9762373   0.3286072  )
        53           O   tau(  53) = (   0.4218109   0.7312347   0.8916764  )
        54           O   tau(  54) = (   0.9218109   0.7312347   0.8916764  )
        55           O   tau(  55) = (   0.4185011   1.2212399   0.8916764  )
        56           O   tau(  56) = (   0.9185011   1.2212399   0.8916764  )
        57           O   tau(  57) = (   0.3215696   0.2487756   0.3286072  )
        58           O   tau(  58) = (   0.8215696   0.2487756   0.3286072  )
        59           O   tau(  59) = (   0.3182599   0.7387808   0.3286072  )
        60           O   tau(  60) = (   0.8182599   0.7387808   0.3286072  )
[...]
        82           O   tau(  82) = (   0.6193061   0.0583106   0.0570952  )
        83           O   tau(  83) = (   0.1159964   0.5483158   0.0570952  )
        84           O   tau(  84) = (   0.6159964   0.5483158   0.0570952  )
        85           O   tau(  85) = (   0.3676513   0.3033132   0.6201644  )
        86           O   tau(  86) = (   0.8676513   0.3033132   0.6201644  )
        87           O   tau(  87) = (   0.3643415   0.7933184   0.6201644  )
        88           O   tau(  88) = (   0.8643415   0.7933184   0.6201644  )
        89           O   tau(  89) = (   0.3790390   0.1866920   0.0570952  )
        90           O   tau(  90) = (   0.8790390   0.1866920   0.0570952  )
        91           O   tau(  91) = (   0.3757292   0.6766972   0.0570952  )
        92           O   tau(  92) = (   0.8757292   0.6766972   0.0570952  )
        93           O   tau(  93) = (   0.6273841   0.4316946   0.6201644  )
        94           O   tau(  94) = (   1.1273841   0.4316946   0.6201644  )
        95           O   tau(  95) = (   0.6240744   0.9216998   0.6201644  )
        96           O   tau(  96) = (   1.1240744   0.9216998   0.6201644  )

     number of k points=     4
                       cart. coord. in units 2pi/alat
        k(    1) = (   0.2500000   0.2567880   0.0000000), wk =   0.5000000
        k(    2) = (   0.2500000   0.2567880  -0.4439951), wk =   0.5000000
        k(    3) = (   0.2500000  -0.2534107   0.2219976), wk =   0.5000000
        k(    4) = (  -0.2500000   0.2534107   0.2219976), wk =   0.5000000

     Initial potential from superposition of free atoms

     starting charge  703.96725, renormalised to  704.00000
     Starting wfc are  544 randomized atomic wfcs

     Self-consistent Calculation

     iteration #  1     ecut=    70.00 Ry     beta= 0.70
     Davidson diagonalization with overlap
     ethr =  1.00E-02,  avg # of iterations =  1.0

     total energy              =   -4949.30909393 Ry
     Harris-Foulkes estimate   =   -4981.29959845 Ry
     estimated scf accuracy    <      40.94412756 Ry

[...]

     total energy              =   -4972.10933964 Ry
     Harris-Foulkes estimate   =   -4972.10933964 Ry
     estimated scf accuracy    <          2.4E-09 Ry

     iteration # 22     ecut=    70.00 Ry     beta= 0.70
     Davidson diagonalization with overlap
     ethr =  3.40E-13,  avg # of iterations =  3.0

     End of self-consistent calculation

          k = 0.2500 0.2568 0.0000 ( 82568 PWs)   bands (ev):

   -14.4879 -14.4868 -14.4863 -14.4853 -14.4835 -14.4831 -14.4827 -14.4820
   -14.4778 -14.4685 -14.4684 -14.4683 -14.4635 -14.4631 -14.4579 -14.4577
   -14.4516 -14.4514 -14.4484 -14.4366 -14.4335 -14.4309 -14.4308 -14.4254
   -14.4234 -14.4126 -14.4125 -14.4060 -14.4052 -14.4050 -14.4049 -14.4025
   -14.4024 -14.3986 -14.3981 -14.3977 -14.3970 -14.3970 -14.3952 -14.3947
   -14.3938 -14.3928 -14.3925 -14.3920 -14.3916 -14.3913 -14.3895 -14.3890
   -14.3876 -14.3859 -14.3839 -14.3836 -14.3811 -14.3810 -14.3797 -14.3795
   -14.3787 -14.3739 -14.3738 -14.3702 -14.3678 -14.3678 -14.3638 -14.3616
   -14.3601 -14.3593 -14.3592 -14.3580 -14.3565 -14.3531 -14.3523 -14.3513
   -14.3509 -14.3485 -14.3481 -14.3462 -14.3456 -14.3416 -14.3414 -14.3366
   -10.4960 -10.2964 -10.1664 -10.1660 -10.1202 -10.1200  -9.9301  -9.8057
    -9.6777  -9.6051  -9.6045  -9.5997  -9.5993  -9.5451  -9.4697  -9.3939
    -9.3597  -9.3216  -9.3207  -9.3139  -9.3027  -9.2799  -9.2797  -9.2525
    -9.2429  -9.1714  -9.1486  -9.1141  -9.1140  -9.0841  -9.0836  -9.0661
    -9.0635  -9.0425  -9.0402  -9.0393  -8.9746  -8.9736  -8.9534  -8.9453
    -8.9346  -8.9341  -8.9244  -8.8990  -8.8918  -8.8915  -8.8886  -8.8632
    -8.8267  -8.8256  -8.8234  -8.8212  -8.8201  -8.8049  -8.7847  -8.7837
    -8.7751  -8.7530  -8.7147  -8.7042  -8.7040  -8.6860  -8.6859  -8.6582
    -2.2087  -2.0740  -2.0740  -1.9657  -1.9018  -1.9015  -1.8935  -1.7949
    -1.5981  -1.5523  -1.5521  -1.5040  -1.4727  -1.3587  -1.3586  -1.3053
     2.4198   2.4643   2.4984   2.4992   2.5539   2.5549   2.6750   2.7349
     2.7359   2.7409   2.7505   2.7521   2.7646   2.7709   2.7755   2.8351
     2.8361   2.9409   2.9519   2.9755   2.9769   3.0042   3.1130   3.1806
     3.1808   3.2215   3.2514   3.2526   3.2810   3.3614   3.3863   3.3865
     3.4147   3.4217   3.4228   3.5344   3.5352   3.6268   3.6427   3.7114
     3.7118   3.7687   3.7764   3.7911   3.8969   3.8979   3.8984   3.9699
     3.9952   4.0187   4.0275   4.0421   4.0428   4.0437   4.0444   4.1462
     4.1865   4.2093   4.2093   4.2360   4.2397   4.2399   4.2452   4.2673
     4.2850   4.2859   4.3005   4.3516   4.3646   4.3698   4.3706   4.3762
     4.3823   4.3836   4.4051   4.4084   4.4418   4.4868   4.4930   4.4940
     4.5360   4.5378   4.6138   4.6343   4.6358   4.6443   4.6449   4.6732
     4.6734   4.6800   4.6965   4.7003   4.7136   4.7218   4.7669   4.7702
     4.7706   4.8415   4.8613   4.8617   4.9195   4.9341   5.0017   5.0078
     5.0081   5.0562   5.0565   5.0930   5.0936   5.1132   5.1231   5.1234
     5.1458   5.1461   5.2147   5.2737   5.2857   5.2873   5.2891   5.3620
     5.3686   5.3689   5.3940   5.3979   5.4239   5.5199   5.5210   5.5457
     5.6497   5.7459   5.7460   5.7518   5.8378   5.8538   5.8543   5.8702
     5.8909   5.9898   5.9930   5.9933   6.0038   6.0648   6.0652   6.1330
     6.1360   6.1557   6.2483   6.2714   6.2720   6.2746   6.2747   6.2750
     6.2851   6.2859   6.2957   6.4121   6.4130   6.4132   6.4195   6.4236
     6.4642   6.4651   6.4738   6.4746   6.4928   6.5825   6.5900   6.5902
     6.6963   6.6979   6.7261   6.7913   6.7920   6.7955   6.8123   6.8675
     6.8741   6.8787   6.8797   6.9327   6.9421   6.9472   6.9474   6.9905
     6.9908   7.0641   7.1488   7.2889   7.2892   7.3694   7.3695   7.4774

[...]

          k = 0.2500-0.2534 0.2220 ( 82555 PWs)   bands (ev):

[...]

          k =-0.2500 0.2534 0.2220 ( 82555 PWs)   bands (ev):

   -14.4883 -14.4865 -14.4860 -14.4856 -14.4851 -14.4846 -14.4829 -14.4781
   -14.4749 -14.4732 -14.4709 -14.4637 -14.4606 -14.4599 -14.4589 -14.4571
   -14.4544 -14.4511 -14.4477 -14.4427 -14.4356 -14.4311 -14.4287 -14.4259
   -14.4222 -14.4153 -14.4123 -14.4089 -14.4078 -14.4073 -14.4051 -14.4041
   -14.4000 -14.3985 -14.3978 -14.3971 -14.3969 -14.3965 -14.3957 -14.3942
   -14.3934 -14.3926 -14.3922 -14.3913 -14.3903 -14.3898 -14.3895 -14.3887
   -14.3870 -14.3850 -14.3843 -14.3837 -14.3828 -14.3795 -14.3762 -14.3745
   -14.3740 -14.3729 -14.3714 -14.3710 -14.3701 -14.3681 -14.3656 -14.3652
   -14.3619 -14.3610 -14.3571 -14.3567 -14.3561 -14.3552 -14.3526 -14.3514
   -14.3502 -14.3499 -14.3485 -14.3474 -14.3468 -14.3411 -14.3404 -14.3370
   -10.4780 -10.3428 -10.2012 -10.1568 -10.1063 -10.0293  -9.9443  -9.8711
    -9.6903  -9.6132  -9.6078  -9.5888  -9.5734  -9.4718  -9.4148  -9.4083
    -9.4065  -9.3898  -9.3829  -9.3606  -9.2471  -9.2334  -9.2228  -9.2011
    -9.1967  -9.1782  -9.1661  -9.1337  -9.1211  -9.1187  -9.1118  -9.1089
    -9.0627  -9.0583  -9.0570  -9.0249  -9.0210  -9.0099  -8.9368  -8.9349
    -8.9314  -8.9154  -8.9128  -8.8897  -8.8869  -8.8845  -8.8489  -8.8480
    -8.8425  -8.8393  -8.8075  -8.7969  -8.7943  -8.7842  -8.7833  -8.7712
    -8.7685  -8.7640  -8.7580  -8.7321  -8.7102  -8.7050  -8.6757  -8.6490
    -2.1762  -2.1133  -2.0313  -2.0121  -1.9599  -1.8804  -1.8247  -1.8186
    -1.6240  -1.5605  -1.5195  -1.5109  -1.4290  -1.3968  -1.3351  -1.3236
     2.4309   2.4819   2.5238   2.5558   2.5773   2.5808   2.5820   2.6384
     2.6918   2.7003   2.7256   2.7415   2.7829   2.7904   2.8043   2.8416
     2.8420   2.8602   3.0159   3.0334   3.0565   3.0833   3.1174   3.1263
     3.1430   3.1917   3.1948   3.2119   3.2334   3.2547   3.3125   3.3722
     3.5130   3.5254   3.5412   3.5497   3.5758   3.6013   3.6514   3.6567
     3.6883   3.6970   3.8611   3.8737   3.9116   3.9333   3.9455   3.9527
     3.9849   3.9869   4.0116   4.0478   4.0982   4.1151   4.1283   4.1410
     4.1483   4.1952   4.2019   4.2054   4.2126   4.2318   4.2339   4.2421
     4.2496   4.2523   4.2937   4.3078   4.3408   4.3545   4.3574   4.3823
     4.4237   4.4271   4.4328   4.4445   4.4529   4.4689   4.4972   4.5295
     4.5388   4.5403   4.5427   4.5653   4.5735   4.6686   4.6691   4.6826
     4.6892   4.7124   4.7347   4.7387   4.7496   4.7539   4.7572   4.7637
     4.7918   4.7975   4.8716   4.8745   4.8775   4.9047   4.9325   4.9653
     4.9770   4.9992   5.0319   5.0503   5.0926   5.0952   5.1236   5.1781
     5.1852   5.2028   5.2303   5.2569   5.2664   5.2686   5.2963   5.3009
     5.3745   5.3764   5.4496   5.4662   5.5043   5.5400   5.5444   5.6074
     5.6767   5.6876   5.6928   5.7133   5.7217   5.7494   5.8082   5.8545
     5.8889   5.9407   5.9612   5.9761   5.9883   6.0379   6.0480   6.1436
     6.1514   6.1998   6.2279   6.2534   6.2732   6.2746   6.2802   6.3112
     6.3353   6.3533   6.3585   6.3779   6.4238   6.4333   6.4338   6.4787
     6.4794   6.5012   6.5545   6.5682   6.6149   6.6211   6.6622   6.6650
     6.6909   6.6918   6.6941   6.7219   6.7265   6.7320   6.7482   6.7902
     6.8306   6.8698   6.8878   6.9220   6.9378   6.9422   6.9565   6.9794
     6.9818   7.0795   7.1203   7.2381   7.2881   7.3053   7.4634   7.4683

     highest occupied level (ev):     7.5545

!    total energy              =   -4972.10933964 Ry
     Harris-Foulkes estimate   =   -4972.10933964 Ry
     estimated scf accuracy    <          4.8E-10 Ry

     The total energy is the sum of the following terms:

     one-electron contribution =   -1193.11310271 Ry
     hartree contribution      =    1074.13766553 Ry
     xc contribution           =   -1297.69971640 Ry
     ewald contribution        =   -3555.43418606 Ry

     convergence has been achieved in  22 iterations

     Forces acting on atoms (cartesian axes, Ry/au):

     atom    1 type  1   force =    -0.00342206   -0.00023722   -0.01387897
     atom    2 type  1   force =     0.00073087   -0.00003028   -0.01385888
     atom    3 type  1   force =    -0.00040739    0.00000812   -0.01385825
     atom    4 type  1   force =     0.00039759    0.00001204   -0.01385914
     atom    5 type  1   force =    -0.00003672    0.00003888   -0.01378900
     atom    6 type  1   force =     0.00003558   -0.00003351   -0.01398553
     atom    7 type  1   force =     0.00003490   -0.00003474   -0.01373705
     atom    8 type  1   force =    -0.00003583    0.00003800   -0.01393277
     atom    9 type  1   force =     0.00043585   -0.00006568    0.01474609
     atom   10 type  1   force =     0.00043613   -0.00006372    0.01297939
     atom   11 type  1   force =    -0.00001788   -0.00002653    0.01403950
     atom   12 type  1   force =    -0.00001637   -0.00002702    0.01368038
     atom   13 type  1   force =    -0.00041929    0.00000742    0.01387111
     atom   14 type  1   force =     0.00027429    0.00001357    0.01383531
     atom   15 type  1   force =    -0.00041878    0.00000637    0.01384974
     atom   16 type  1   force =     0.00027348    0.00001325    0.01388286
     atom   17 type  2   force =     0.00080756   -0.00070520    0.00486586
     atom   18 type  2   force =     0.00076425    0.00120458    0.00506496
     atom   19 type  2   force =     0.00076926    0.00121511    0.00401069
     atom   20 type  2   force =     0.00080666   -0.00069565    0.00420856
     atom   21 type  2   force =     0.00005158   -0.00001856    0.00454001
     atom   22 type  2   force =    -0.00006633    0.00006153    0.00454000
     atom   23 type  2   force =    -0.00005250   -0.00003784    0.00453905
     atom   24 type  2   force =     0.00003399   -0.00001974    0.00453873
     atom   25 type  2   force =    -0.00058491   -0.00032278   -0.00464132
     atom   26 type  2   force =     0.00023069    0.00003806   -0.00447817
     atom   27 type  2   force =    -0.00058004   -0.00032023   -0.00444118
     atom   28 type  2   force =     0.00023165    0.00003467   -0.00460068
     atom   29 type  2   force =     0.00054170   -0.00024068   -0.00405214
     atom   30 type  2   force =     0.00054210   -0.00024016   -0.00502656
     atom   31 type  2   force =     0.00002705    0.00000563   -0.00443621
     atom   32 type  2   force =     0.00002853    0.00000497   -0.00463807
     atom   33 type  3   force =    -0.00045111   -0.00135672    0.00004566
     atom   34 type  3   force =    -0.00002362   -0.00166377   -0.00015572
     atom   35 type  3   force =    -0.00035788   -0.00158227   -0.00001604
     atom   36 type  3   force =    -0.00004128   -0.00103139    0.00029041
     atom   37 type  3   force =    -0.00016483   -0.00129128    0.00015454
     atom   38 type  3   force =    -0.00018282   -0.00128571    0.00017598
     atom   39 type  3   force =    -0.00011931   -0.00127492    0.00020832
     atom   40 type  3   force =    -0.00020224   -0.00127037    0.00015159
     atom   41 type  3   force =    -0.00015766    0.00133561    0.00055656
     atom   42 type  3   force =    -0.00061960    0.00161518    0.00033658
     atom   43 type  3   force =    -0.00020888    0.00194392    0.00009091
     atom   44 type  3   force =    -0.00052616    0.00139357    0.00039739
     atom   45 type  3   force =    -0.00028776    0.00170033    0.00017506
     atom   46 type  3   force =    -0.00037089    0.00170469    0.00023185
     atom   47 type  3   force =    -0.00033312    0.00168402    0.00022869
     atom   48 type  3   force =    -0.00035134    0.00168935    0.00020766
     atom   49 type  3   force =     0.00066630    0.00150903   -0.00007293
     atom   50 type  3   force =    -0.00006047    0.00120208   -0.00021539
     atom   51 type  3   force =     0.00033583    0.00135898   -0.00002465
     atom   52 type  3   force =     0.00009128    0.00126933   -0.00019664
     atom   53 type  3   force =     0.00004399    0.00111443   -0.00029624
     atom   54 type  3   force =     0.00027622    0.00146535   -0.00003544
     atom   55 type  3   force =     0.00013002    0.00124549   -0.00019853
     atom   56 type  3   force =     0.00021528    0.00130853   -0.00014880
     atom   57 type  3   force =     0.00083809   -0.00147449   -0.00030053
     atom   58 type  3   force =     0.00010753   -0.00177348   -0.00016848
     atom   59 type  3   force =     0.00050502   -0.00161559   -0.00035935
     atom   60 type  3   force =     0.00025895   -0.00170615   -0.00018640
[...]
     atom   82 type  3   force =     0.00845946   -0.00522392   -0.00530174
     atom   83 type  3   force =     0.00859360   -0.00513056   -0.00528030
     atom   84 type  3   force =     0.00835902   -0.00524895   -0.00530732
     atom   85 type  3   force =     0.00880728   -0.00539722   -0.00555788
     atom   86 type  3   force =     0.00869853   -0.00539567   -0.00538431
     atom   87 type  3   force =     0.00876015   -0.00535738   -0.00548995
     atom   88 type  3   force =     0.00873907   -0.00538429   -0.00543154
     atom   89 type  3   force =    -0.00856108    0.00533736   -0.00565848
     atom   90 type  3   force =    -0.00880505    0.00522773   -0.00562735
     atom   91 type  3   force =    -0.00812308    0.00483799   -0.00530100
     atom   92 type  3   force =    -0.00870457    0.00525259   -0.00563201
     atom   93 type  3   force =    -0.00846749    0.00508172   -0.00555166
     atom   94 type  3   force =    -0.00835928    0.00508005   -0.00537793
     atom   95 type  3   force =    -0.00842625    0.00509251   -0.00550368
     atom   96 type  3   force =    -0.00840536    0.00511945   -0.00544525

     Total force =     0.087758     Total SCF correction =     0.000065

     Computing stress (Cartesian axis) and pressure

          total   stress  (Ry/bohr**3)                   (kbar)     P=   40.58
   0.00029107   0.00000143   0.00000041         42.82      0.21      0.06
   0.00000143   0.00026677  -0.00000053          0.21     39.24     -0.08
   0.00000041  -0.00000053   0.00026978          0.06     -0.08     39.69

     General routines

     Parallel routines

   This run was terminated on:  19:46:30  27Oct2021

   JOB DONE.
Note: The following floating-point exceptions are signalling: IEEE_DIVIDE_BY_ZERO
Note: The following floating-point exceptions are signalling: IEEE_DIVIDE_BY_ZERO IEEE_UNDERFLOW_FLAG IEEE_DENORMAL
Note: The following floating-point exceptions are signalling: IEEE_DIVIDE_BY_ZERO
Note: The following floating-point exceptions are signalling: IEEE_DIVIDE_BY_ZERO