     Program PWSCF v.6.2 (svn rev. 13949:13950) starts on 28Oct2021 at 17:27:37

     R & G space division:  proc/nbgrp/npool/nimage =       4
     Reading input from headeradd_supercell-018.in

     Current dimensions of program PWSCF are:
     Max number of different atomic species (ntypx) = 10
     Max number of k-points (npk) =  40000
     Max angular momentum in pseudopotentials (lmaxx) =  3
     Message from routine iosys:
     minimal I/O required, wf_collect reset to FALSE
               file Bi.pbe-dn-rrkjus_psl.1.0.0.UPF: wavefunction(s)  5D renormalized
               file O.pbe-rrkjus.UPF: wavefunction(s)  2S renormalized

     Subspace diagonalization in iterative solution of the eigenvalue problem:
     a serial algorithm will be used

     bravais-lattice index     =            0
     lattice parameter (alat)  =      19.6286  a.u.
     unit-cell volume          =    8346.2129 (a.u.)^3
     number of atoms/cell      =           96
     number of atomic types    =            3
     number of electrons       =       704.00
     number of Kohn-Sham states=          352
     kinetic-energy cutoff     =      70.0000  Ry
     charge density cutoff     =     280.0000  Ry
     convergence threshold     =      1.0E-09
     mixing beta               =       0.7000
     number of iterations used =            8  plain     mixing
     Exchange-correlation      =  SLA  PW   PBE  PBE ( 1  4  3  4 0 0)

     celldm(1)=  19.628585  celldm(2)=   0.000000  celldm(3)=   0.000000
     celldm(4)=   0.000000  celldm(5)=   0.000000  celldm(6)=   0.000000

     crystal axes: (cart. coord. in units of alat)
               a(1) = (   1.000000   0.000000   0.000000 )
               a(2) = (  -0.006620   0.980010   0.000000 )
               a(3) = (   0.496690   0.490005   1.126138 )

     reciprocal axes: (cart. coord. in units 2 pi/alat)
               b(1) = (  1.000000  0.006755 -0.443995 )
               b(2) = (  0.000000  1.020397 -0.443995 )
               b(3) = (  0.000000 -0.000000  0.887990 )

     PseudoPot. # 1 for Bi read from file:
     /home/uezono/pseudo/Bi.pbe-dn-rrkjus_psl.1.0.0.UPF
     MD5 check sum: f9abe7488ae443f53c935a63d0032572
     Pseudo is Ultrasoft + core correction, Zval = 15.0
     Generated using "atomic" code by A. Dal Corso  v.6.2.2
     Using radial grid of 1283 points,  6 beta functions with:
                l(1) =   0
                l(2) =   0
                l(3) =   1
                l(4) =   1
                l(5) =   2
                l(6) =   2
     Q(r) pseudized with 0 coefficients

     PseudoPot. # 2 for V  read from file:
     /home/uezono/pseudo/V.pbe-n-van.UPF
     MD5 check sum: ff5646be6093ca757d9525862f4bfff1
     Pseudo is Ultrasoft + core correction, Zval =  5.0
     Generated by new atomic code, or converted to UPF format
     Using radial grid of  853 points,  6 beta functions with:
                l(1) =   0
                l(2) =   0
                l(3) =   1
                l(4) =   1
                l(5) =   2
                l(6) =   2
     Q(r) pseudized with  8 coefficients,  rinner =    1.000   1.000   1.000
                                                       1.000   1.000

     PseudoPot. # 3 for O  read from file:
     /home/uezono/pseudo/O.pbe-rrkjus.UPF
     MD5 check sum: fadcf19ee70a498d3030e2e79cf929a4
     Pseudo is Ultrasoft, Zval =  6.0
     Generated by new atomic code, or converted to UPF format
     Using radial grid of 1269 points,  4 beta functions with:
                l(1) =   0
                l(2) =   0
                l(3) =   1
                l(4) =   1
     Q(r) pseudized with 0 coefficients

     atomic species   valence    mass     pseudopotential
        Bi            15.00   208.98040     Bi( 1.00)
        V              5.00    50.94150     V ( 1.00)
        O              6.00    15.99940     O ( 1.00)

     No symmetry found

   Cartesian axes

     site n.     atom                  positions (alat units)
         1           Bi  tau(   1) = (   0.2475177   0.3675039   0.1503395  )
         2           Bi  tau(   2) = (   0.7475177   0.3675039   0.1503395  )
         3           Bi  tau(   3) = (   0.2442079   0.8575091   0.1503395  )
         4           Bi  tau(   4) = (   0.7442079   0.8575091   0.1503395  )
         5           Bi  tau(   5) = (   0.4958628   0.6125065   0.7134087  )
         6           Bi  tau(   6) = (   0.9958628   0.6125065   0.7134087  )
         7           Bi  tau(   7) = (   0.4925531   1.1025117   0.7134087  )
         8           Bi  tau(   8) = (   0.9925531   1.1025117   0.7134087  )
         9           Bi  tau(   9) = (   0.4975177   0.3675039   0.4127297  )
        10           Bi  tau(  10) = (   0.9975177   0.3675039   0.4127297  )
        11           Bi  tau(  11) = (   0.4942079   0.8575091   0.4127297  )
        12           Bi  tau(  12) = (   0.9942079   0.8575091   0.4127297  )
        13           Bi  tau(  13) = (   0.7458628   0.6125065   0.9757990  )
        14           Bi  tau(  14) = (   1.2458628   0.6125065   0.9757990  )
        15           Bi  tau(  15) = (   0.7425531   1.1025117   0.9757990  )
        16           Bi  tau(  16) = (   1.2425531   1.1025117   0.9757990  )
        17           V   tau(  17) = (   0.4991726   0.1225013   0.1463980  )
        18           V   tau(  18) = (   0.9991726   0.1225013   0.1463980  )
        19           V   tau(  19) = (   0.4958628   0.6125065   0.1463980  )
        20           V   tau(  20) = (   0.9958628   0.6125065   0.1463980  )
        21           V   tau(  21) = (   0.7475177   0.3675039   0.7094672  )
        22           V   tau(  22) = (   1.2475177   0.3675039   0.7094672  )
        23           V   tau(  23) = (   0.7442079   0.8575091   0.7094672  )
        24           V   tau(  24) = (   1.2442079   0.8575091   0.7094672  )
        25           V   tau(  25) = (   0.2458628   0.6125065   0.4166712  )
        26           V   tau(  26) = (   0.7458628   0.6125065   0.4166712  )
        27           V   tau(  27) = (   0.2425531   1.1025117   0.4166712  )
        28           V   tau(  28) = (   0.7425531   1.1025117   0.4166712  )
        29           V   tau(  29) = (   0.4942079   0.8575091   0.9797404  )
        30           V   tau(  30) = (   0.9942079   0.8575091   0.9797404  )
        31           V   tau(  31) = (   0.4908982   1.3475143   0.9797404  )
        32           V   tau(  32) = (   0.9908982   1.3475143   0.9797404  )
        33           O   tau(  33) = (   0.5715696   0.2487756   0.2344620  )
        34           O   tau(  34) = (   1.0715696   0.2487756   0.2344620  )
        35           O   tau(  35) = (   0.5682599   0.7387808   0.2344620  )
        36           O   tau(  36) = (   1.0682599   0.7387808   0.2344620  )
        37           O   tau(  37) = (   0.8199148   0.4937782   0.7975312  )
        38           O   tau(  38) = (   1.3199148   0.4937782   0.7975312  )
        39           O   tau(  39) = (   0.8166050   0.9837834   0.7975312  )
        40           O   tau(  40) = (   1.3166050   0.9837834   0.7975312  )
        41           O   tau(  41) = (   0.4234657   0.4862321   0.2344620  )
        42           O   tau(  42) = (   0.9234657   0.4862321   0.2344620  )
        43           O   tau(  43) = (   0.4201560   0.9762373   0.2344620  )
        44           O   tau(  44) = (   0.9201560   0.9762373   0.2344620  )
        45           O   tau(  45) = (   0.6718109   0.7312347   0.7975312  )
        46           O   tau(  46) = (   1.1718109   0.7312347   0.7975312  )
        47           O   tau(  47) = (   0.6685011   1.2212399   0.7975312  )
        48           O   tau(  48) = (   1.1685011   1.2212399   0.7975312  )
        49           O   tau(  49) = (   0.1734657   0.4862321   0.3286072  )
        50           O   tau(  50) = (   0.6734657   0.4862321   0.3286072  )
        51           O   tau(  51) = (   0.1701560   0.9762373   0.3286072  )
        52           O   tau(  52) = (   0.6701560   0.9762373   0.3286072  )
        53           O   tau(  53) = (   0.4218109   0.7312347   0.8916764  )
        54           O   tau(  54) = (   0.9218109   0.7312347   0.8916764  )
        55           O   tau(  55) = (   0.4185011   1.2212399   0.8916764  )
        56           O   tau(  56) = (   0.9185011   1.2212399   0.8916764  )
        57           O   tau(  57) = (   0.3215696   0.2487756   0.3286072  )
        58           O   tau(  58) = (   0.8215696   0.2487756   0.3286072  )
        59           O   tau(  59) = (   0.3182599   0.7387808   0.3286072  )
        60           O   tau(  60) = (   0.8182599   0.7387808   0.3286072  )
[...]
        82           O   tau(  82) = (   0.6193061   0.0583106   0.0570952  )
        83           O   tau(  83) = (   0.1159964   0.5483158   0.0570952  )
        84           O   tau(  84) = (   0.6159964   0.5483158   0.0570952  )
        85           O   tau(  85) = (   0.3676513   0.3033132   0.6201644  )
        86           O   tau(  86) = (   0.8676513   0.3033132   0.6201644  )
        87           O   tau(  87) = (   0.3643415   0.7933184   0.6201644  )
        88           O   tau(  88) = (   0.8643415   0.7933184   0.6201644  )
        89           O   tau(  89) = (   0.3790390   0.1866920   0.0570952  )
        90           O   tau(  90) = (   0.8790390   0.1866920   0.0570952  )
        91           O   tau(  91) = (   0.3757292   0.6766972   0.0570952  )
        92           O   tau(  92) = (   0.8757292   0.6766972   0.0570952  )
        93           O   tau(  93) = (   0.6273841   0.4316946   0.6201644  )
        94           O   tau(  94) = (   1.1273841   0.4316946   0.6201644  )
        95           O   tau(  95) = (   0.6240744   0.9216998   0.6201644  )
        96           O   tau(  96) = (   1.1240744   0.9216998   0.6201644  )

     number of k points=     4
                       cart. coord. in units 2pi/alat
        k(    1) = (   0.2500000   0.2567880   0.0000000), wk =   0.5000000
        k(    2) = (   0.2500000   0.2567880  -0.4439951), wk =   0.5000000
        k(    3) = (   0.2500000  -0.2534107   0.2219976), wk =   0.5000000
        k(    4) = (  -0.2500000   0.2534107   0.2219976), wk =   0.5000000

     Initial potential from superposition of free atoms

     starting charge  703.96725, renormalised to  704.00000
     Starting wfc are  544 randomized atomic wfcs

     Self-consistent Calculation

     iteration #  1     ecut=    70.00 Ry     beta= 0.70
     Davidson diagonalization with overlap
     ethr =  1.00E-02,  avg # of iterations =  1.0

     total energy              =   -4949.31261967 Ry
     Harris-Foulkes estimate   =   -4981.29940117 Ry
     estimated scf accuracy    <      40.93995404 Ry

[...]

     total energy              =   -4972.10927554 Ry
     Harris-Foulkes estimate   =   -4972.10927554 Ry
     estimated scf accuracy    <          1.5E-09 Ry

     iteration # 23     ecut=    70.00 Ry     beta= 0.70
     Davidson diagonalization with overlap
     ethr =  2.07E-13,  avg # of iterations =  3.0

     End of self-consistent calculation

          k = 0.2500 0.2568 0.0000 ( 82568 PWs)   bands (ev):

   -14.4880 -14.4868 -14.4859 -14.4853 -14.4836 -14.4829 -14.4824 -14.4819
   -14.4780 -14.4693 -14.4683 -14.4675 -14.4635 -14.4634 -14.4585 -14.4573
   -14.4521 -14.4508 -14.4483 -14.4365 -14.4337 -14.4317 -14.4300 -14.4253
   -14.4235 -14.4133 -14.4117 -14.4061 -14.4057 -14.4051 -14.4041 -14.4026
   -14.4020 -14.3989 -14.3984 -14.3977 -14.3976 -14.3963 -14.3950 -14.3948
   -14.3940 -14.3927 -14.3925 -14.3924 -14.3910 -14.3907 -14.3901 -14.3887
   -14.3882 -14.3857 -14.3843 -14.3834 -14.3817 -14.3805 -14.3798 -14.3797
   -14.3788 -14.3745 -14.3732 -14.3702 -14.3686 -14.3670 -14.3636 -14.3618
   -14.3601 -14.3599 -14.3588 -14.3580 -14.3563 -14.3530 -14.3523 -14.3518
   -14.3506 -14.3491 -14.3479 -14.3462 -14.3458 -14.3424 -14.3408 -14.3366
   -10.4958 -10.2962 -10.1669 -10.1649 -10.1210 -10.1192  -9.9300  -9.8055
    -9.6778  -9.6054  -9.6036  -9.6004  -9.5990  -9.5450  -9.4695  -9.3937
    -9.3596  -9.3213  -9.3205  -9.3145  -9.3028  -9.2803  -9.2800  -9.2522
    -9.2429  -9.1711  -9.1484  -9.1148  -9.1130  -9.0845  -9.0832  -9.0663
    -9.0636  -9.0421  -9.0403  -9.0397  -8.9747  -8.9736  -8.9536  -8.9456
    -8.9352  -8.9333  -8.9247  -8.8993  -8.8925  -8.8906  -8.8893  -8.8632
    -8.8257  -8.8248  -8.8241  -8.8220  -8.8213  -8.8051  -8.7847  -8.7834
    -8.7768  -8.7532  -8.7145  -8.7049  -8.7040  -8.6868  -8.6858  -8.6589
    -2.2086  -2.0748  -2.0732  -1.9657  -1.9024  -1.9009  -1.8935  -1.7950
    -1.5981  -1.5529  -1.5514  -1.5040  -1.4727  -1.3595  -1.3579  -1.3053
     2.4195   2.4642   2.4982   2.4996   2.5542   2.5545   2.6748   2.7353
     2.7359   2.7411   2.7501   2.7518   2.7648   2.7707   2.7754   2.8355
     2.8359   2.9409   2.9518   2.9759   2.9763   3.0041   3.1126   3.1802
     3.1809   3.2208   3.2513   3.2525   3.2813   3.3613   3.3862   3.3866
     3.4143   3.4217   3.4223   3.5343   3.5347   3.6268   3.6420   3.7113
     3.7122   3.7687   3.7761   3.7912   3.8964   3.8977   3.8984   3.9698
     3.9953   4.0186   4.0279   4.0421   4.0428   4.0433   4.0437   4.1458
     4.1865   4.2090   4.2092   4.2361   4.2396   4.2406   4.2449   4.2674
     4.2846   4.2854   4.3003   4.3513   4.3650   4.3692   4.3701   4.3762
     4.3823   4.3830   4.4053   4.4081   4.4418   4.4869   4.4932   4.4939
     4.5355   4.5380   4.6139   4.6348   4.6353   4.6438   4.6447   4.6724
     4.6734   4.6797   4.6964   4.7001   4.7132   4.7217   4.7670   4.7701
     4.7703   4.8412   4.8605   4.8616   4.9198   4.9339   5.0012   5.0075
     5.0084   5.0561   5.0567   5.0930   5.0938   5.1130   5.1231   5.1234
     5.1453   5.1461   5.2146   5.2738   5.2858   5.2876   5.2878   5.3620
     5.3688   5.3690   5.3937   5.3974   5.4238   5.5200   5.5208   5.5458
     5.6496   5.7457   5.7461   5.7515   5.8379   5.8537   5.8543   5.8697
     5.8909   5.9897   5.9926   5.9934   6.0038   6.0646   6.0651   6.1335
     6.1355   6.1557   6.2485   6.2712   6.2723   6.2728   6.2747   6.2750
     6.2852   6.2857   6.2955   6.4122   6.4126   6.4140   6.4196   6.4233
     6.4641   6.4654   6.4739   6.4745   6.4924   6.5827   6.5894   6.5905
     6.6964   6.6970   6.7263   6.7909   6.7920   6.7954   6.8118   6.8676
     6.8739   6.8785   6.8798   6.9327   6.9423   6.9462   6.9474   6.9900
     6.9907   7.0639   7.1488   7.2883   7.2891   7.3688   7.3699   7.4774

[...]

          k = 0.2500-0.2534 0.2220 ( 82555 PWs)   bands (ev):

[...]

          k =-0.2500 0.2534 0.2220 ( 82555 PWs)   bands (ev):

   -14.4883 -14.4869 -14.4861 -14.4853 -14.4846 -14.4841 -14.4832 -14.4778
   -14.4751 -14.4735 -14.4707 -14.4636 -14.4610 -14.4600 -14.4591 -14.4572
   -14.4542 -14.4509 -14.4477 -14.4427 -14.4357 -14.4314 -14.4285 -14.4259
   -14.4223 -14.4154 -14.4121 -14.4089 -14.4078 -14.4075 -14.4050 -14.4039
   -14.3998 -14.3986 -14.3981 -14.3973 -14.3968 -14.3964 -14.3951 -14.3942
   -14.3936 -14.3928 -14.3914 -14.3908 -14.3906 -14.3899 -14.3897 -14.3888
   -14.3871 -14.3849 -14.3844 -14.3836 -14.3831 -14.3796 -14.3760 -14.3748
   -14.3740 -14.3730 -14.3715 -14.3709 -14.3701 -14.3680 -14.3656 -14.3653
   -14.3621 -14.3609 -14.3569 -14.3567 -14.3563 -14.3552 -14.3524 -14.3512
   -14.3506 -14.3501 -14.3485 -14.3474 -14.3471 -14.3416 -14.3400 -14.3370
   -10.4779 -10.3426 -10.2010 -10.1568 -10.1061 -10.0291  -9.9441  -9.8708
    -9.6905  -9.6132  -9.6078  -9.5885  -9.5734  -9.4716  -9.4146  -9.4080
    -9.4069  -9.3901  -9.3831  -9.3605  -9.2469  -9.2337  -9.2227  -9.2016
    -9.1967  -9.1781  -9.1655  -9.1334  -9.1211  -9.1187  -9.1109  -9.1103
    -9.0628  -9.0575  -9.0572  -9.0237  -9.0224  -9.0102  -8.9366  -8.9358
    -8.9316  -8.9148  -8.9139  -8.8893  -8.8863  -8.8853  -8.8493  -8.8474
    -8.8417  -8.8402  -8.8081  -8.7962  -8.7950  -8.7847  -8.7835  -8.7725
    -8.7682  -8.7634  -8.7591  -8.7328  -8.7102  -8.7048  -8.6765  -8.6495
    -2.1761  -2.1133  -2.0313  -2.0121  -1.9598  -1.8805  -1.8248  -1.8185
    -1.6238  -1.5606  -1.5195  -1.5109  -1.4289  -1.3968  -1.3352  -1.3236
     2.4307   2.4818   2.5236   2.5559   2.5779   2.5805   2.5823   2.6381
     2.6911   2.7008   2.7257   2.7410   2.7827   2.7903   2.8048   2.8412
     2.8422   2.8596   3.0156   3.0333   3.0565   3.0830   3.1174   3.1265
     3.1425   3.1917   3.1944   3.2111   3.2340   3.2541   3.3123   3.3727
     3.5129   3.5260   3.5406   3.5501   3.5761   3.6007   3.6511   3.6568
     3.6879   3.6971   3.8613   3.8732   3.9120   3.9337   3.9453   3.9525
     3.9846   3.9865   4.0113   4.0482   4.0978   4.1147   4.1276   4.1409
     4.1481   4.1954   4.2015   4.2053   4.2123   4.2309   4.2338   4.2419
     4.2491   4.2525   4.2939   4.3075   4.3411   4.3548   4.3568   4.3828
     4.4240   4.4268   4.4329   4.4446   4.4529   4.4682   4.4969   4.5291
     4.5387   4.5404   4.5413   4.5650   4.5722   4.6683   4.6691   4.6828
     4.6887   4.7124   4.7347   4.7384   4.7499   4.7527   4.7571   4.7631
     4.7916   4.7978   4.8721   4.8749   4.8776   4.9046   4.9327   4.9654
     4.9769   4.9991   5.0315   5.0502   5.0932   5.0955   5.1235   5.1778
     5.1852   5.2028   5.2301   5.2567   5.2666   5.2687   5.2963   5.3008
     5.3748   5.3765   5.4493   5.4660   5.5036   5.5399   5.5445   5.6069
     5.6762   5.6877   5.6920   5.7130   5.7218   5.7494   5.8083   5.8537
     5.8891   5.9405   5.9609   5.9757   5.9884   6.0378   6.0478   6.1432
     6.1511   6.2004   6.2279   6.2531   6.2727   6.2747   6.2798   6.3117
     6.3352   6.3530   6.3587   6.3777   6.4240   6.4332   6.4337   6.4787
     6.4796   6.5013   6.5547   6.5678   6.6152   6.6207   6.6619   6.6649
     6.6912   6.6919   6.6933   6.7219   6.7263   6.7315   6.7481   6.7895
     6.8299   6.8699   6.8875   6.9217   6.9376   6.9422   6.9565   6.9794
     6.9815   7.0792   7.1200   7.2380   7.2880   7.3052   7.4636   7.4680

     highest occupied level (ev):     7.5544

!    total energy              =   -4972.10927554 Ry
     Harris-Foulkes estimate   =   -4972.10927554 Ry
     estimated scf accuracy    <          4.9E-10 Ry

     The total energy is the sum of the following terms:

     one-electron contribution =   -1193.16438338 Ry
     hartree contribution      =    1074.16294538 Ry
     xc contribution           =   -1297.70297676 Ry
     ewald contribution        =   -3555.40486077 Ry

     convergence has been achieved in  23 iterations

     Forces acting on atoms (cartesian axes, Ry/au):

     atom    1 type  1   force =     0.00001840    0.00002276   -0.01381835
     atom    2 type  1   force =    -0.00005574    0.00012020   -0.01367455
     atom    3 type  1   force =     0.00001175   -0.00001541   -0.01383302
     atom    4 type  1   force =    -0.00002229   -0.00008735   -0.01374006
     atom    5 type  1   force =    -0.00030401   -0.00017436   -0.01365615
     atom    6 type  1   force =    -0.00000374   -0.00009881   -0.01395991
     atom    7 type  1   force =    -0.00006602    0.00006735   -0.01385962
     atom    8 type  1   force =     0.00003205    0.00004286   -0.01389479
     atom    9 type  1   force =     0.00013307    0.00015823    0.01374307
     atom   10 type  1   force =    -0.00008286    0.00009786    0.01386313
     atom   11 type  1   force =    -0.00018862    0.00009154    0.01350846
     atom   12 type  1   force =    -0.00003148   -0.00005819    0.01373423
     atom   13 type  1   force =     0.00006698   -0.00005389    0.01397609
     atom   14 type  1   force =    -0.00003920    0.00001210    0.01393411
     atom   15 type  1   force =     0.00001309    0.00002944    0.01395090
     atom   16 type  1   force =    -0.00001864   -0.00000331    0.01392276
     atom   17 type  2   force =     0.00001624    0.00000561    0.00456159
     atom   18 type  2   force =    -0.00002868    0.00000673    0.00456789
     atom   19 type  2   force =     0.00011857    0.00008857    0.00465683
     atom   20 type  2   force =    -0.00005074   -0.00001105    0.00460986
     atom   21 type  2   force =     0.00008647   -0.00001038    0.00451499
     atom   22 type  2   force =    -0.00005675   -0.00008292    0.00445395
     atom   23 type  2   force =     0.00020718    0.00030991    0.00485904
     atom   24 type  2   force =    -0.00006403    0.00001168    0.00455498
     atom   25 type  2   force =     0.00001674   -0.00001784   -0.00454745
     atom   26 type  2   force =     0.00186727   -0.00162390   -0.00772156
     atom   27 type  2   force =     0.00001329    0.00000285   -0.00455120
     atom   28 type  2   force =     0.00001961    0.00004326   -0.00461219
     atom   29 type  2   force =    -0.00001276    0.00006419   -0.00445629
     atom   30 type  2   force =     0.00003300    0.00000635   -0.00448891
     atom   31 type  2   force =    -0.00003449   -0.00004258   -0.00447390
     atom   32 type  2   force =     0.00002402   -0.00001122   -0.00450481
     atom   33 type  3   force =    -0.00018497   -0.00130482    0.00016096
     atom   34 type  3   force =    -0.00017022   -0.00129298    0.00014966
     atom   35 type  3   force =    -0.00027478   -0.00121416   -0.00013478
     atom   36 type  3   force =    -0.00014464   -0.00126306    0.00016240
     atom   37 type  3   force =    -0.00018416   -0.00127759    0.00018365
     atom   38 type  3   force =     0.00002645   -0.00109894    0.00013379
     atom   39 type  3   force =    -0.00022750   -0.00137788    0.00008778
     atom   40 type  3   force =    -0.00016212   -0.00128257    0.00016005
     atom   41 type  3   force =    -0.00038676    0.00165907    0.00021940
     atom   42 type  3   force =    -0.00029195    0.00170887    0.00017560
     atom   43 type  3   force =    -0.00033912    0.00169397    0.00020576
     atom   44 type  3   force =    -0.00031269    0.00171897    0.00021148
     atom   45 type  3   force =    -0.00035126    0.00168909   -0.00005133
     atom   46 type  3   force =    -0.00030381    0.00172999    0.00021153
     atom   47 type  3   force =    -0.00034059    0.00169685    0.00020406
     atom   48 type  3   force =    -0.00033183    0.00171636    0.00019462
     atom   49 type  3   force =     0.00017273    0.00128154   -0.00016935
     atom   50 type  3   force =     0.00037325    0.00071748   -0.00065731
     atom   51 type  3   force =     0.00017218    0.00128023   -0.00016952
     atom   52 type  3   force =     0.00018104    0.00129258   -0.00014896
     atom   53 type  3   force =     0.00018704    0.00117987   -0.00029233
     atom   54 type  3   force =     0.00013239    0.00127765   -0.00018640
     atom   55 type  3   force =     0.00017527    0.00128122   -0.00019015
     atom   56 type  3   force =     0.00015878    0.00126525   -0.00018391
     atom   57 type  3   force =     0.00032325   -0.00170768   -0.00021362
     atom   58 type  3   force =     0.00032867   -0.00175137   -0.00019235
     atom   59 type  3   force =     0.00034988   -0.00166866   -0.00020344
     atom   60 type  3   force =     0.00050472   -0.00137791   -0.00033175
[...]
     atom   82 type  3   force =     0.00873749   -0.00536488   -0.00547924
     atom   83 type  3   force =     0.00877156   -0.00538993   -0.00549468
     atom   84 type  3   force =     0.00877031   -0.00539017   -0.00550699
     atom   85 type  3   force =     0.00872015   -0.00538728   -0.00542548
     atom   86 type  3   force =     0.00872035   -0.00539728   -0.00541540
     atom   87 type  3   force =     0.00882354   -0.00543007   -0.00546641
     atom   88 type  3   force =     0.00844079   -0.00549723   -0.00557523
     atom   89 type  3   force =    -0.00843550    0.00509824   -0.00550117
     atom   90 type  3   force =    -0.00839381    0.00506800   -0.00549551
     atom   91 type  3   force =    -0.00848184    0.00511673   -0.00552264
     atom   92 type  3   force =    -0.00841986    0.00509541   -0.00550383
     atom   93 type  3   force =    -0.00845988    0.00519346   -0.00544105
     atom   94 type  3   force =    -0.00837291    0.00507794   -0.00543123
     atom   95 type  3   force =    -0.00837503    0.00469043   -0.00562260
     atom   96 type  3   force =    -0.00840280    0.00508762   -0.00544016

     Total force =     0.088462     Total SCF correction =     0.000070

     Computing stress (Cartesian axis) and pressure

          total   stress  (Ry/bohr**3)                   (kbar)     P=   40.67
   0.00029178   0.00000084  -0.00000047         42.92      0.12     -0.07
   0.00000084   0.00026702   0.00000017          0.12     39.28      0.02
  -0.00000047   0.00000017   0.00027062         -0.07      0.02     39.81

     General routines

     Parallel routines

   This run was terminated on:  19: 2: 8  28Oct2021

   JOB DONE.
Note: The following floating-point exceptions are signalling: IEEE_DIVIDE_BY_ZERO
Note: The following floating-point exceptions are signalling: IEEE_DIVIDE_BY_ZERO
Note: The following floating-point exceptions are signalling: IEEE_DIVIDE_BY_ZERO
Note: The following floating-point exceptions are signalling: IEEE_DIVIDE_BY_ZERO IEEE_UNDERFLOW_FLAG IEEE_DENORMAL