     Program PWSCF v.6.2 (svn rev. 13949:13950) starts on 28Oct2021 at  1:56:57

     R & G space division:  proc/nbgrp/npool/nimage =       4
     Reading input from headeradd_supercell-008.in

     Current dimensions of program PWSCF are:
     Max number of different atomic species (ntypx) = 10
     Max number of k-points (npk) =  40000
     Max angular momentum in pseudopotentials (lmaxx) =  3
     Message from routine iosys:
     minimal I/O required, wf_collect reset to FALSE
               file Bi.pbe-dn-rrkjus_psl.1.0.0.UPF: wavefunction(s)  5D renormalized
               file O.pbe-rrkjus.UPF: wavefunction(s)  2S renormalized

     Subspace diagonalization in iterative solution of the eigenvalue problem:
     a serial algorithm will be used

     bravais-lattice index     =            0
     lattice parameter (alat)  =      19.6286  a.u.
     unit-cell volume          =    8346.2129 (a.u.)^3
     number of atoms/cell      =           96
     number of atomic types    =            3
     number of electrons       =       704.00
     number of Kohn-Sham states=          352
     kinetic-energy cutoff     =      70.0000  Ry
     charge density cutoff     =     280.0000  Ry
     convergence threshold     =      1.0E-09
     mixing beta               =       0.7000
     number of iterations used =            8  plain     mixing
     Exchange-correlation      =  SLA  PW   PBE  PBE ( 1  4  3  4 0 0)

     celldm(1)=  19.628585  celldm(2)=   0.000000  celldm(3)=   0.000000
     celldm(4)=   0.000000  celldm(5)=   0.000000  celldm(6)=   0.000000

     crystal axes: (cart. coord. in units of alat)
               a(1) = (   1.000000   0.000000   0.000000 )
               a(2) = (  -0.006620   0.980010   0.000000 )
               a(3) = (   0.496690   0.490005   1.126138 )

     reciprocal axes: (cart. coord. in units 2 pi/alat)
               b(1) = (  1.000000  0.006755 -0.443995 )
               b(2) = (  0.000000  1.020397 -0.443995 )
               b(3) = (  0.000000 -0.000000  0.887990 )

     PseudoPot. # 1 for Bi read from file:
     /home/uezono/pseudo/Bi.pbe-dn-rrkjus_psl.1.0.0.UPF
     MD5 check sum: f9abe7488ae443f53c935a63d0032572
     Pseudo is Ultrasoft + core correction, Zval = 15.0
     Generated using "atomic" code by A. Dal Corso  v.6.2.2
     Using radial grid of 1283 points,  6 beta functions with:
                l(1) =   0
                l(2) =   0
                l(3) =   1
                l(4) =   1
                l(5) =   2
                l(6) =   2
     Q(r) pseudized with 0 coefficients

     PseudoPot. # 2 for V  read from file:
     /home/uezono/pseudo/V.pbe-n-van.UPF
     MD5 check sum: ff5646be6093ca757d9525862f4bfff1
     Pseudo is Ultrasoft + core correction, Zval =  5.0
     Generated by new atomic code, or converted to UPF format
     Using radial grid of  853 points,  6 beta functions with:
                l(1) =   0
                l(2) =   0
                l(3) =   1
                l(4) =   1
                l(5) =   2
                l(6) =   2
     Q(r) pseudized with  8 coefficients,  rinner =    1.000   1.000   1.000
                                                       1.000   1.000

     PseudoPot. # 3 for O  read from file:
     /home/uezono/pseudo/O.pbe-rrkjus.UPF
     MD5 check sum: fadcf19ee70a498d3030e2e79cf929a4
     Pseudo is Ultrasoft, Zval =  6.0
     Generated by new atomic code, or converted to UPF format
     Using radial grid of 1269 points,  4 beta functions with:
                l(1) =   0
                l(2) =   0
                l(3) =   1
                l(4) =   1
     Q(r) pseudized with 0 coefficients

     atomic species   valence    mass     pseudopotential
        Bi            15.00   208.98040     Bi( 1.00)
        V              5.00    50.94150     V ( 1.00)
        O              6.00    15.99940     O ( 1.00)

     No symmetry found

   Cartesian axes

     site n.     atom                  positions (alat units)
         1           Bi  tau(   1) = (   0.2475177   0.3675039   0.1503395  )
         2           Bi  tau(   2) = (   0.7475177   0.3675039   0.1503395  )
         3           Bi  tau(   3) = (   0.2442079   0.8575091   0.1503395  )
         4           Bi  tau(   4) = (   0.7442079   0.8575091   0.1503395  )
         5           Bi  tau(   5) = (   0.4958628   0.6125065   0.7134087  )
         6           Bi  tau(   6) = (   0.9958628   0.6125065   0.7134087  )
         7           Bi  tau(   7) = (   0.4925531   1.1025117   0.7134087  )
         8           Bi  tau(   8) = (   0.9925531   1.1025117   0.7134087  )
         9           Bi  tau(   9) = (   0.4975177   0.3675039   0.4127297  )
        10           Bi  tau(  10) = (   0.9975177   0.3675039   0.4127297  )
        11           Bi  tau(  11) = (   0.4942079   0.8575091   0.4127297  )
        12           Bi  tau(  12) = (   0.9942079   0.8575091   0.4127297  )
        13           Bi  tau(  13) = (   0.7458628   0.6125065   0.9757990  )
        14           Bi  tau(  14) = (   1.2458628   0.6125065   0.9757990  )
        15           Bi  tau(  15) = (   0.7425531   1.1025117   0.9757990  )
        16           Bi  tau(  16) = (   1.2425531   1.1025117   0.9757990  )
        17           V   tau(  17) = (   0.4991726   0.1225013   0.1463980  )
        18           V   tau(  18) = (   0.9991726   0.1225013   0.1463980  )
        19           V   tau(  19) = (   0.4958628   0.6125065   0.1463980  )
        20           V   tau(  20) = (   0.9958628   0.6125065   0.1463980  )
        21           V   tau(  21) = (   0.7475177   0.3675039   0.7094672  )
        22           V   tau(  22) = (   1.2475177   0.3675039   0.7094672  )
        23           V   tau(  23) = (   0.7442079   0.8575091   0.7094672  )
        24           V   tau(  24) = (   1.2442079   0.8575091   0.7094672  )
        25           V   tau(  25) = (   0.2458628   0.6125065   0.4166712  )
        26           V   tau(  26) = (   0.7458628   0.6125065   0.4166712  )
        27           V   tau(  27) = (   0.2425531   1.1025117   0.4166712  )
        28           V   tau(  28) = (   0.7425531   1.1025117   0.4166712  )
        29           V   tau(  29) = (   0.4942079   0.8575091   0.9797404  )
        30           V   tau(  30) = (   0.9942079   0.8575091   0.9797404  )
        31           V   tau(  31) = (   0.4908982   1.3475143   0.9797404  )
        32           V   tau(  32) = (   0.9908982   1.3475143   0.9797404  )
        33           O   tau(  33) = (   0.5705507   0.2487756   0.2344620  )
        34           O   tau(  34) = (   1.0715696   0.2487756   0.2344620  )
        35           O   tau(  35) = (   0.5682599   0.7387808   0.2344620  )
        36           O   tau(  36) = (   1.0682599   0.7387808   0.2344620  )
        37           O   tau(  37) = (   0.8199148   0.4937782   0.7975312  )
        38           O   tau(  38) = (   1.3199148   0.4937782   0.7975312  )
        39           O   tau(  39) = (   0.8166050   0.9837834   0.7975312  )
        40           O   tau(  40) = (   1.3166050   0.9837834   0.7975312  )
        41           O   tau(  41) = (   0.4234657   0.4862321   0.2344620  )
        42           O   tau(  42) = (   0.9234657   0.4862321   0.2344620  )
        43           O   tau(  43) = (   0.4201560   0.9762373   0.2344620  )
        44           O   tau(  44) = (   0.9201560   0.9762373   0.2344620  )
        45           O   tau(  45) = (   0.6718109   0.7312347   0.7975312  )
        46           O   tau(  46) = (   1.1718109   0.7312347   0.7975312  )
        47           O   tau(  47) = (   0.6685011   1.2212399   0.7975312  )
        48           O   tau(  48) = (   1.1685011   1.2212399   0.7975312  )
        49           O   tau(  49) = (   0.1734657   0.4862321   0.3286072  )
        50           O   tau(  50) = (   0.6734657   0.4862321   0.3286072  )
        51           O   tau(  51) = (   0.1701560   0.9762373   0.3286072  )
        52           O   tau(  52) = (   0.6701560   0.9762373   0.3286072  )
        53           O   tau(  53) = (   0.4218109   0.7312347   0.8916764  )
        54           O   tau(  54) = (   0.9218109   0.7312347   0.8916764  )
        55           O   tau(  55) = (   0.4185011   1.2212399   0.8916764  )
        56           O   tau(  56) = (   0.9185011   1.2212399   0.8916764  )
        57           O   tau(  57) = (   0.3215696   0.2487756   0.3286072  )
        58           O   tau(  58) = (   0.8215696   0.2487756   0.3286072  )
        59           O   tau(  59) = (   0.3182599   0.7387808   0.3286072  )
        60           O   tau(  60) = (   0.8182599   0.7387808   0.3286072  )
[...]
        82           O   tau(  82) = (   0.6193061   0.0583106   0.0570952  )
        83           O   tau(  83) = (   0.1159964   0.5483158   0.0570952  )
        84           O   tau(  84) = (   0.6159964   0.5483158   0.0570952  )
        85           O   tau(  85) = (   0.3676513   0.3033132   0.6201644  )
        86           O   tau(  86) = (   0.8676513   0.3033132   0.6201644  )
        87           O   tau(  87) = (   0.3643415   0.7933184   0.6201644  )
        88           O   tau(  88) = (   0.8643415   0.7933184   0.6201644  )
        89           O   tau(  89) = (   0.3790390   0.1866920   0.0570952  )
        90           O   tau(  90) = (   0.8790390   0.1866920   0.0570952  )
        91           O   tau(  91) = (   0.3757292   0.6766972   0.0570952  )
        92           O   tau(  92) = (   0.8757292   0.6766972   0.0570952  )
        93           O   tau(  93) = (   0.6273841   0.4316946   0.6201644  )
        94           O   tau(  94) = (   1.1273841   0.4316946   0.6201644  )
        95           O   tau(  95) = (   0.6240744   0.9216998   0.6201644  )
        96           O   tau(  96) = (   1.1240744   0.9216998   0.6201644  )

     number of k points=     4
                       cart. coord. in units 2pi/alat
        k(    1) = (   0.2500000   0.2567880   0.0000000), wk =   0.5000000
        k(    2) = (   0.2500000   0.2567880  -0.4439951), wk =   0.5000000
        k(    3) = (   0.2500000  -0.2534107   0.2219976), wk =   0.5000000
        k(    4) = (  -0.2500000   0.2534107   0.2219976), wk =   0.5000000

     Initial potential from superposition of free atoms

     starting charge  703.96725, renormalised to  704.00000
     Starting wfc are  544 randomized atomic wfcs

     Self-consistent Calculation

     iteration #  1     ecut=    70.00 Ry     beta= 0.70
     Davidson diagonalization with overlap
     ethr =  1.00E-02,  avg # of iterations =  1.0

     total energy              =   -4949.31249162 Ry
     Harris-Foulkes estimate   =   -4981.29980593 Ry
     estimated scf accuracy    <      40.94055358 Ry

[...]

     total energy              =   -4972.10933597 Ry
     Harris-Foulkes estimate   =   -4972.10933598 Ry
     estimated scf accuracy    <          1.7E-09 Ry

     iteration # 22     ecut=    70.00 Ry     beta= 0.70
     Davidson diagonalization with overlap
     ethr =  2.37E-13,  avg # of iterations =  3.0

     End of self-consistent calculation

          k = 0.2500 0.2568 0.0000 ( 82568 PWs)   bands (ev):

   -14.4899 -14.4868 -14.4866 -14.4851 -14.4840 -14.4829 -14.4826 -14.4823
   -14.4783 -14.4699 -14.4683 -14.4679 -14.4640 -14.4637 -14.4585 -14.4578
   -14.4522 -14.4515 -14.4486 -14.4369 -14.4343 -14.4314 -14.4307 -14.4255
   -14.4239 -14.4135 -14.4124 -14.4082 -14.4060 -14.4049 -14.4045 -14.4034
   -14.4025 -14.4002 -14.3985 -14.3981 -14.3974 -14.3969 -14.3956 -14.3951
   -14.3947 -14.3932 -14.3927 -14.3923 -14.3915 -14.3909 -14.3897 -14.3893
   -14.3879 -14.3863 -14.3842 -14.3839 -14.3817 -14.3811 -14.3803 -14.3799
   -14.3788 -14.3746 -14.3738 -14.3704 -14.3687 -14.3677 -14.3643 -14.3620
   -14.3607 -14.3598 -14.3593 -14.3582 -14.3566 -14.3539 -14.3523 -14.3513
   -14.3511 -14.3488 -14.3485 -14.3464 -14.3461 -14.3421 -14.3414 -14.3368
   -10.4959 -10.2964 -10.1663 -10.1659 -10.1205 -10.1201  -9.9301  -9.8058
    -9.6774  -9.6050  -9.6044  -9.5998  -9.5995  -9.5452  -9.4699  -9.3939
    -9.3598  -9.3209  -9.3204  -9.3143  -9.3021  -9.2799  -9.2794  -9.2525
    -9.2430  -9.1714  -9.1488  -9.1142  -9.1139  -9.0840  -9.0836  -9.0662
    -9.0634  -9.0424  -9.0400  -9.0396  -8.9740  -8.9736  -8.9532  -8.9451
    -8.9350  -8.9343  -8.9242  -8.8991  -8.8924  -8.8915  -8.8886  -8.8635
    -8.8251  -8.8245  -8.8240  -8.8219  -8.8208  -8.8049  -8.7838  -8.7833
    -8.7760  -8.7532  -8.7140  -8.7043  -8.7036  -8.6861  -8.6853  -8.6585
    -2.2088  -2.0742  -2.0738  -1.9657  -1.9024  -1.9016  -1.8937  -1.7951
    -1.5985  -1.5530  -1.5521  -1.5044  -1.4731  -1.3597  -1.3585  -1.3056
     2.4198   2.4643   2.4982   2.4989   2.5543   2.5547   2.6751   2.7352
     2.7360   2.7407   2.7503   2.7518   2.7644   2.7707   2.7755   2.8353
     2.8357   2.9406   2.9521   2.9758   2.9763   3.0039   3.1129   3.1806
     3.1809   3.2217   3.2514   3.2522   3.2808   3.3615   3.3860   3.3865
     3.4148   3.4221   3.4224   3.5346   3.5353   3.6269   3.6427   3.7109
     3.7117   3.7685   3.7766   3.7912   3.8971   3.8979   3.8987   3.9701
     3.9953   4.0188   4.0272   4.0423   4.0427   4.0436   4.0440   4.1463
     4.1864   4.2093   4.2096   4.2355   4.2393   4.2400   4.2451   4.2677
     4.2847   4.2854   4.3002   4.3514   4.3651   4.3698   4.3704   4.3759
     4.3826   4.3830   4.4049   4.4085   4.4410   4.4868   4.4932   4.4937
     4.5360   4.5379   4.6132   4.6349   4.6354   4.6445   4.6451   4.6729
     4.6732   4.6803   4.6961   4.7003   4.7135   4.7215   4.7671   4.7699
     4.7701   4.8414   4.8612   4.8616   4.9192   4.9341   5.0015   5.0078
     5.0082   5.0558   5.0563   5.0928   5.0936   5.1129   5.1232   5.1236
     5.1457   5.1460   5.2149   5.2737   5.2865   5.2876   5.2882   5.3620
     5.3688   5.3694   5.3939   5.3980   5.4239   5.5204   5.5206   5.5458
     5.6499   5.7457   5.7465   5.7518   5.8379   5.8540   5.8542   5.8698
     5.8907   5.9897   5.9928   5.9935   6.0039   6.0648   6.0651   6.1334
     6.1357   6.1559   6.2486   6.2714   6.2720   6.2742   6.2749   6.2754
     6.2853   6.2858   6.2959   6.4121   6.4129   6.4133   6.4195   6.4236
     6.4643   6.4647   6.4740   6.4745   6.4927   6.5827   6.5901   6.5906
     6.6963   6.6983   6.7261   6.7917   6.7919   6.7950   6.8123   6.8672
     6.8742   6.8785   6.8796   6.9328   6.9418   6.9471   6.9474   6.9903
     6.9908   7.0639   7.1486   7.2887   7.2893   7.3689   7.3693   7.4771

[...]

          k = 0.2500-0.2534 0.2220 ( 82555 PWs)   bands (ev):

[...]

          k =-0.2500 0.2534 0.2220 ( 82555 PWs)   bands (ev):

   -14.4901 -14.4872 -14.4859 -14.4855 -14.4853 -14.4843 -14.4831 -14.4782
   -14.4757 -14.4735 -14.4711 -14.4640 -14.4618 -14.4598 -14.4596 -14.4572
   -14.4548 -14.4511 -14.4481 -14.4429 -14.4361 -14.4316 -14.4290 -14.4261
   -14.4228 -14.4156 -14.4127 -14.4099 -14.4080 -14.4078 -14.4061 -14.4041
   -14.4016 -14.3990 -14.3983 -14.3973 -14.3971 -14.3966 -14.3958 -14.3950
   -14.3942 -14.3924 -14.3920 -14.3911 -14.3905 -14.3901 -14.3897 -14.3891
   -14.3875 -14.3853 -14.3844 -14.3839 -14.3833 -14.3798 -14.3767 -14.3751
   -14.3744 -14.3733 -14.3717 -14.3714 -14.3702 -14.3683 -14.3663 -14.3653
   -14.3623 -14.3613 -14.3579 -14.3571 -14.3564 -14.3551 -14.3530 -14.3514
   -14.3505 -14.3499 -14.3490 -14.3476 -14.3472 -14.3416 -14.3405 -14.3371
   -10.4780 -10.3428 -10.2011 -10.1569 -10.1064 -10.0293  -9.9444  -9.8712
    -9.6907  -9.6128  -9.6077  -9.5888  -9.5735  -9.4718  -9.4142  -9.4082
    -9.4065  -9.3901  -9.3830  -9.3605  -9.2472  -9.2334  -9.2225  -9.2014
    -9.1966  -9.1782  -9.1654  -9.1335  -9.1215  -9.1189  -9.1112  -9.1106
    -9.0626  -9.0575  -9.0568  -9.0235  -9.0216  -9.0101  -8.9365  -8.9357
    -8.9314  -8.9149  -8.9136  -8.8893  -8.8861  -8.8858  -8.8492  -8.8482
    -8.8421  -8.8394  -8.8076  -8.7957  -8.7948  -8.7836  -8.7832  -8.7717
    -8.7682  -8.7631  -8.7585  -8.7322  -8.7098  -8.7044  -8.6759  -8.6490
    -2.1763  -2.1133  -2.0313  -2.0121  -1.9602  -1.8806  -1.8250  -1.8188
    -1.6244  -1.5608  -1.5199  -1.5112  -1.4295  -1.3973  -1.3356  -1.3238
     2.4309   2.4817   2.5234   2.5562   2.5782   2.5801   2.5822   2.6382
     2.6911   2.7004   2.7256   2.7408   2.7828   2.7901   2.8050   2.8413
     2.8418   2.8597   3.0159   3.0335   3.0565   3.0831   3.1171   3.1268
     3.1426   3.1916   3.1946   3.2121   3.2338   3.2539   3.3122   3.3724
     3.5130   3.5259   3.5412   3.5496   3.5756   3.6013   3.6515   3.6567
     3.6880   3.6972   3.8614   3.8738   3.9121   3.9338   3.9447   3.9529
     3.9844   3.9865   4.0114   4.0478   4.0983   4.1145   4.1280   4.1408
     4.1489   4.1955   4.2024   4.2054   4.2115   4.2313   4.2336   4.2412
     4.2493   4.2526   4.2943   4.3075   4.3415   4.3546   4.3571   4.3830
     4.4248   4.4264   4.4330   4.4450   4.4529   4.4681   4.4970   4.5296
     4.5394   4.5403   4.5410   4.5648   4.5726   4.6681   4.6690   4.6828
     4.6885   4.7127   4.7345   4.7381   4.7501   4.7535   4.7565   4.7634
     4.7913   4.7980   4.8716   4.8751   4.8777   4.9045   4.9324   4.9652
     4.9770   4.9990   5.0322   5.0496   5.0934   5.0957   5.1241   5.1773
     5.1852   5.2023   5.2299   5.2568   5.2667   5.2690   5.2965   5.3010
     5.3747   5.3763   5.4496   5.4662   5.5041   5.5408   5.5447   5.6074
     5.6758   5.6879   5.6926   5.7134   5.7219   5.7491   5.8086   5.8541
     5.8894   5.9405   5.9613   5.9757   5.9886   6.0379   6.0482   6.1433
     6.1514   6.2000   6.2274   6.2533   6.2731   6.2744   6.2795   6.3116
     6.3350   6.3535   6.3588   6.3782   6.4237   6.4329   6.4343   6.4790
     6.4794   6.5014   6.5550   6.5679   6.6153   6.6215   6.6624   6.6653
     6.6909   6.6918   6.6936   6.7219   6.7266   6.7320   6.7478   6.7901
     6.8309   6.8698   6.8873   6.9218   6.9377   6.9422   6.9565   6.9792
     6.9816   7.0795   7.1200   7.2380   7.2879   7.3053   7.4631   7.4679

     highest occupied level (ev):     7.5542

!    total energy              =   -4972.10933597 Ry
     Harris-Foulkes estimate   =   -4972.10933598 Ry
     estimated scf accuracy    <          5.3E-10 Ry

     The total energy is the sum of the following terms:

     one-electron contribution =   -1193.09904329 Ry
     hartree contribution      =    1074.12879477 Ry
     xc contribution           =   -1297.70175175 Ry
     ewald contribution        =   -3555.43733570 Ry

     convergence has been achieved in  22 iterations

     Forces acting on atoms (cartesian axes, Ry/au):

     atom    1 type  1   force =     0.00027801   -0.00024737   -0.01386025
     atom    2 type  1   force =    -0.00015125    0.00000525   -0.01377807
     atom    3 type  1   force =     0.00018629    0.00015728   -0.01381101
     atom    4 type  1   force =    -0.00013178    0.00012863   -0.01401277
     atom    5 type  1   force =    -0.00000729   -0.00001693   -0.01386509
     atom    6 type  1   force =     0.00001072    0.00000021   -0.01382084
     atom    7 type  1   force =    -0.00005297    0.00000202   -0.01387453
     atom    8 type  1   force =     0.00003028    0.00001869   -0.01384313
     atom    9 type  1   force =    -0.00049873    0.00017938    0.01422009
     atom   10 type  1   force =     0.00022860    0.00000913    0.01399748
     atom   11 type  1   force =    -0.00016823    0.00011388    0.01372979
     atom   12 type  1   force =     0.00007764    0.00000841    0.01386640
     atom   13 type  1   force =     0.00012385    0.00000049    0.01401696
     atom   14 type  1   force =    -0.00010841   -0.00008257    0.01397088
     atom   15 type  1   force =     0.00003846    0.00002136    0.01385824
     atom   16 type  1   force =    -0.00004706    0.00006154    0.01380265
     atom   17 type  2   force =    -0.00221904   -0.00173337    0.00325434
     atom   18 type  2   force =     0.00015561   -0.00006665    0.00454673
     atom   19 type  2   force =    -0.00016958    0.00005335    0.00463687
     atom   20 type  2   force =     0.00014383    0.00024515    0.00439054
     atom   21 type  2   force =    -0.00003545    0.00004150    0.00457281
     atom   22 type  2   force =     0.00002140   -0.00000486    0.00453414
     atom   23 type  2   force =    -0.00001462   -0.00002008    0.00456025
     atom   24 type  2   force =    -0.00001188   -0.00001327    0.00451654
     atom   25 type  2   force =     0.00005171    0.00002390   -0.00452167
     atom   26 type  2   force =     0.00002271    0.00013350   -0.00444641
     atom   27 type  2   force =     0.00019786    0.00018676   -0.00474517
     atom   28 type  2   force =     0.00009249   -0.00037253   -0.00418028
     atom   29 type  2   force =     0.00019179   -0.00011513   -0.00462496
     atom   30 type  2   force =    -0.00008377   -0.00002090   -0.00451510
     atom   31 type  2   force =     0.00001934    0.00002760   -0.00454427
     atom   32 type  2   force =    -0.00000771    0.00007050   -0.00446258
     atom   33 type  3   force =     0.00397782    0.00087625    0.00111147
     atom   34 type  3   force =    -0.00025148   -0.00129523    0.00017391
     atom   35 type  3   force =    -0.00017039   -0.00134068    0.00016266
     atom   36 type  3   force =    -0.00024788   -0.00137554    0.00014609
     atom   37 type  3   force =    -0.00016982   -0.00129606    0.00014251
     atom   38 type  3   force =    -0.00016685   -0.00129069    0.00014964
     atom   39 type  3   force =    -0.00017816   -0.00127880    0.00016913
     atom   40 type  3   force =    -0.00015460   -0.00126538    0.00019247
     atom   41 type  3   force =    -0.00033752    0.00189506    0.00020112
     atom   42 type  3   force =    -0.00076890    0.00132966    0.00005242
     atom   43 type  3   force =    -0.00057067    0.00123473    0.00047691
     atom   44 type  3   force =    -0.00034820    0.00172597    0.00022116
     atom   45 type  3   force =    -0.00034094    0.00172865    0.00018514
     atom   46 type  3   force =    -0.00034053    0.00171118    0.00019775
     atom   47 type  3   force =    -0.00034091    0.00168960    0.00021011
     atom   48 type  3   force =    -0.00034104    0.00168025    0.00022527
     atom   49 type  3   force =     0.00007088    0.00127185   -0.00013894
     atom   50 type  3   force =     0.00013038    0.00102708   -0.00035652
     atom   51 type  3   force =     0.00008713    0.00121771   -0.00019106
     atom   52 type  3   force =     0.00021345    0.00153089   -0.00016867
     atom   53 type  3   force =     0.00022045    0.00135396   -0.00014018
     atom   54 type  3   force =     0.00017680    0.00129482   -0.00018576
     atom   55 type  3   force =     0.00015638    0.00125605   -0.00017476
     atom   56 type  3   force =     0.00014590    0.00124520   -0.00018913
     atom   57 type  3   force =    -0.00028270   -0.00174390    0.00017909
     atom   58 type  3   force =    -0.00027233   -0.00169618   -0.00056286
     atom   59 type  3   force =     0.00032107   -0.00173232   -0.00018880
     atom   60 type  3   force =     0.00032060   -0.00175515   -0.00016325
[...]
     atom   82 type  3   force =     0.00964342   -0.00540745   -0.00560787
     atom   83 type  3   force =     0.00863957   -0.00531745   -0.00543509
     atom   84 type  3   force =     0.00897049   -0.00552788   -0.00548039
     atom   85 type  3   force =     0.00873776   -0.00538045   -0.00543460
     atom   86 type  3   force =     0.00876794   -0.00539317   -0.00550717
     atom   87 type  3   force =     0.00873991   -0.00538592   -0.00544682
     atom   88 type  3   force =     0.00874697   -0.00537691   -0.00547388
     atom   89 type  3   force =    -0.00903185    0.00507745   -0.00595389
     atom   90 type  3   force =    -0.00849910    0.00524291   -0.00546176
     atom   91 type  3   force =    -0.00837917    0.00506761   -0.00545951
     atom   92 type  3   force =    -0.00835020    0.00504245   -0.00545191
     atom   93 type  3   force =    -0.00835761    0.00509414   -0.00542215
     atom   94 type  3   force =    -0.00844656    0.00510047   -0.00550719
     atom   95 type  3   force =    -0.00840313    0.00510845   -0.00546949
     atom   96 type  3   force =    -0.00842633    0.00509001   -0.00547277

     Total force =     0.087973     Total SCF correction =     0.000077

     Computing stress (Cartesian axis) and pressure

          total   stress  (Ry/bohr**3)                   (kbar)     P=   40.64
   0.00029141   0.00000155   0.00000001         42.87      0.23      0.00
   0.00000155   0.00026724   0.00000049          0.23     39.31      0.07
   0.00000001   0.00000049   0.00027019          0.00      0.07     39.75

     General routines

     Parallel routines

   This run was terminated on:   3:27:32  28Oct2021

   JOB DONE.
Note: The following floating-point exceptions are signalling: IEEE_DIVIDE_BY_ZERO
Note: The following floating-point exceptions are signalling:Note: The following floating-point exceptions are signalling: IEEE_DIVIDE_BY_ZERO
 IEEE_DIVIDE_BY_ZERO IEEE_UNDERFLOW_FLAG IEEE_DENORMAL
Note: The following floating-point exceptions are signalling: IEEE_DIVIDE_BY_ZERO