     Program PWSCF v.6.2 (svn rev. 13949:13950) starts on 28Oct2021 at  5: 1:46

     R & G space division:  proc/nbgrp/npool/nimage =       4
     Reading input from headeradd_supercell-010.in

     Current dimensions of program PWSCF are:
     Max number of different atomic species (ntypx) = 10
     Max number of k-points (npk) =  40000
     Max angular momentum in pseudopotentials (lmaxx) =  3
     Message from routine iosys:
     minimal I/O required, wf_collect reset to FALSE
               file Bi.pbe-dn-rrkjus_psl.1.0.0.UPF: wavefunction(s)  5D renormalized
               file O.pbe-rrkjus.UPF: wavefunction(s)  2S renormalized

     Subspace diagonalization in iterative solution of the eigenvalue problem:
     a serial algorithm will be used

     bravais-lattice index     =            0
     lattice parameter (alat)  =      19.6286  a.u.
     unit-cell volume          =    8346.2129 (a.u.)^3
     number of atoms/cell      =           96
     number of atomic types    =            3
     number of electrons       =       704.00
     number of Kohn-Sham states=          352
     kinetic-energy cutoff     =      70.0000  Ry
     charge density cutoff     =     280.0000  Ry
     convergence threshold     =      1.0E-09
     mixing beta               =       0.7000
     number of iterations used =            8  plain     mixing
     Exchange-correlation      =  SLA  PW   PBE  PBE ( 1  4  3  4 0 0)

     celldm(1)=  19.628585  celldm(2)=   0.000000  celldm(3)=   0.000000
     celldm(4)=   0.000000  celldm(5)=   0.000000  celldm(6)=   0.000000

     crystal axes: (cart. coord. in units of alat)
               a(1) = (   1.000000   0.000000   0.000000 )
               a(2) = (  -0.006620   0.980010   0.000000 )
               a(3) = (   0.496690   0.490005   1.126138 )

     reciprocal axes: (cart. coord. in units 2 pi/alat)
               b(1) = (  1.000000  0.006755 -0.443995 )
               b(2) = (  0.000000  1.020397 -0.443995 )
               b(3) = (  0.000000 -0.000000  0.887990 )

     PseudoPot. # 1 for Bi read from file:
     /home/uezono/pseudo/Bi.pbe-dn-rrkjus_psl.1.0.0.UPF
     MD5 check sum: f9abe7488ae443f53c935a63d0032572
     Pseudo is Ultrasoft + core correction, Zval = 15.0
     Generated using "atomic" code by A. Dal Corso  v.6.2.2
     Using radial grid of 1283 points,  6 beta functions with:
                l(1) =   0
                l(2) =   0
                l(3) =   1
                l(4) =   1
                l(5) =   2
                l(6) =   2
     Q(r) pseudized with 0 coefficients

     PseudoPot. # 2 for V  read from file:
     /home/uezono/pseudo/V.pbe-n-van.UPF
     MD5 check sum: ff5646be6093ca757d9525862f4bfff1
     Pseudo is Ultrasoft + core correction, Zval =  5.0
     Generated by new atomic code, or converted to UPF format
     Using radial grid of  853 points,  6 beta functions with:
                l(1) =   0
                l(2) =   0
                l(3) =   1
                l(4) =   1
                l(5) =   2
                l(6) =   2
     Q(r) pseudized with  8 coefficients,  rinner =    1.000   1.000   1.000
                                                       1.000   1.000

     PseudoPot. # 3 for O  read from file:
     /home/uezono/pseudo/O.pbe-rrkjus.UPF
     MD5 check sum: fadcf19ee70a498d3030e2e79cf929a4
     Pseudo is Ultrasoft, Zval =  6.0
     Generated by new atomic code, or converted to UPF format
     Using radial grid of 1269 points,  4 beta functions with:
                l(1) =   0
                l(2) =   0
                l(3) =   1
                l(4) =   1
     Q(r) pseudized with 0 coefficients

     atomic species   valence    mass     pseudopotential
        Bi            15.00   208.98040     Bi( 1.00)
        V              5.00    50.94150     V ( 1.00)
        O              6.00    15.99940     O ( 1.00)

     No symmetry found

   Cartesian axes

     site n.     atom                  positions (alat units)
         1           Bi  tau(   1) = (   0.2475177   0.3675039   0.1503395  )
         2           Bi  tau(   2) = (   0.7475177   0.3675039   0.1503395  )
         3           Bi  tau(   3) = (   0.2442079   0.8575091   0.1503395  )
         4           Bi  tau(   4) = (   0.7442079   0.8575091   0.1503395  )
         5           Bi  tau(   5) = (   0.4958628   0.6125065   0.7134087  )
         6           Bi  tau(   6) = (   0.9958628   0.6125065   0.7134087  )
         7           Bi  tau(   7) = (   0.4925531   1.1025117   0.7134087  )
         8           Bi  tau(   8) = (   0.9925531   1.1025117   0.7134087  )
         9           Bi  tau(   9) = (   0.4975177   0.3675039   0.4127297  )
        10           Bi  tau(  10) = (   0.9975177   0.3675039   0.4127297  )
        11           Bi  tau(  11) = (   0.4942079   0.8575091   0.4127297  )
        12           Bi  tau(  12) = (   0.9942079   0.8575091   0.4127297  )
        13           Bi  tau(  13) = (   0.7458628   0.6125065   0.9757990  )
        14           Bi  tau(  14) = (   1.2458628   0.6125065   0.9757990  )
        15           Bi  tau(  15) = (   0.7425531   1.1025117   0.9757990  )
        16           Bi  tau(  16) = (   1.2425531   1.1025117   0.9757990  )
        17           V   tau(  17) = (   0.4991726   0.1225013   0.1463980  )
        18           V   tau(  18) = (   0.9991726   0.1225013   0.1463980  )
        19           V   tau(  19) = (   0.4958628   0.6125065   0.1463980  )
        20           V   tau(  20) = (   0.9958628   0.6125065   0.1463980  )
        21           V   tau(  21) = (   0.7475177   0.3675039   0.7094672  )
        22           V   tau(  22) = (   1.2475177   0.3675039   0.7094672  )
        23           V   tau(  23) = (   0.7442079   0.8575091   0.7094672  )
        24           V   tau(  24) = (   1.2442079   0.8575091   0.7094672  )
        25           V   tau(  25) = (   0.2458628   0.6125065   0.4166712  )
        26           V   tau(  26) = (   0.7458628   0.6125065   0.4166712  )
        27           V   tau(  27) = (   0.2425531   1.1025117   0.4166712  )
        28           V   tau(  28) = (   0.7425531   1.1025117   0.4166712  )
        29           V   tau(  29) = (   0.4942079   0.8575091   0.9797404  )
        30           V   tau(  30) = (   0.9942079   0.8575091   0.9797404  )
        31           V   tau(  31) = (   0.4908982   1.3475143   0.9797404  )
        32           V   tau(  32) = (   0.9908982   1.3475143   0.9797404  )
        33           O   tau(  33) = (   0.5715765   0.2477567   0.2344620  )
        34           O   tau(  34) = (   1.0715696   0.2487756   0.2344620  )
        35           O   tau(  35) = (   0.5682599   0.7387808   0.2344620  )
        36           O   tau(  36) = (   1.0682599   0.7387808   0.2344620  )
        37           O   tau(  37) = (   0.8199148   0.4937782   0.7975312  )
        38           O   tau(  38) = (   1.3199148   0.4937782   0.7975312  )
        39           O   tau(  39) = (   0.8166050   0.9837834   0.7975312  )
        40           O   tau(  40) = (   1.3166050   0.9837834   0.7975312  )
        41           O   tau(  41) = (   0.4234657   0.4862321   0.2344620  )
        42           O   tau(  42) = (   0.9234657   0.4862321   0.2344620  )
        43           O   tau(  43) = (   0.4201560   0.9762373   0.2344620  )
        44           O   tau(  44) = (   0.9201560   0.9762373   0.2344620  )
        45           O   tau(  45) = (   0.6718109   0.7312347   0.7975312  )
        46           O   tau(  46) = (   1.1718109   0.7312347   0.7975312  )
        47           O   tau(  47) = (   0.6685011   1.2212399   0.7975312  )
        48           O   tau(  48) = (   1.1685011   1.2212399   0.7975312  )
        49           O   tau(  49) = (   0.1734657   0.4862321   0.3286072  )
        50           O   tau(  50) = (   0.6734657   0.4862321   0.3286072  )
        51           O   tau(  51) = (   0.1701560   0.9762373   0.3286072  )
        52           O   tau(  52) = (   0.6701560   0.9762373   0.3286072  )
        53           O   tau(  53) = (   0.4218109   0.7312347   0.8916764  )
        54           O   tau(  54) = (   0.9218109   0.7312347   0.8916764  )
        55           O   tau(  55) = (   0.4185011   1.2212399   0.8916764  )
        56           O   tau(  56) = (   0.9185011   1.2212399   0.8916764  )
        57           O   tau(  57) = (   0.3215696   0.2487756   0.3286072  )
        58           O   tau(  58) = (   0.8215696   0.2487756   0.3286072  )
        59           O   tau(  59) = (   0.3182599   0.7387808   0.3286072  )
        60           O   tau(  60) = (   0.8182599   0.7387808   0.3286072  )
[...]
        82           O   tau(  82) = (   0.6193061   0.0583106   0.0570952  )
        83           O   tau(  83) = (   0.1159964   0.5483158   0.0570952  )
        84           O   tau(  84) = (   0.6159964   0.5483158   0.0570952  )
        85           O   tau(  85) = (   0.3676513   0.3033132   0.6201644  )
        86           O   tau(  86) = (   0.8676513   0.3033132   0.6201644  )
        87           O   tau(  87) = (   0.3643415   0.7933184   0.6201644  )
        88           O   tau(  88) = (   0.8643415   0.7933184   0.6201644  )
        89           O   tau(  89) = (   0.3790390   0.1866920   0.0570952  )
        90           O   tau(  90) = (   0.8790390   0.1866920   0.0570952  )
        91           O   tau(  91) = (   0.3757292   0.6766972   0.0570952  )
        92           O   tau(  92) = (   0.8757292   0.6766972   0.0570952  )
        93           O   tau(  93) = (   0.6273841   0.4316946   0.6201644  )
        94           O   tau(  94) = (   1.1273841   0.4316946   0.6201644  )
        95           O   tau(  95) = (   0.6240744   0.9216998   0.6201644  )
        96           O   tau(  96) = (   1.1240744   0.9216998   0.6201644  )

     number of k points=     4
                       cart. coord. in units 2pi/alat
        k(    1) = (   0.2500000   0.2567880   0.0000000), wk =   0.5000000
        k(    2) = (   0.2500000   0.2567880  -0.4439951), wk =   0.5000000
        k(    3) = (   0.2500000  -0.2534107   0.2219976), wk =   0.5000000
        k(    4) = (  -0.2500000   0.2534107   0.2219976), wk =   0.5000000

     Initial potential from superposition of free atoms

     starting charge  703.96725, renormalised to  704.00000
     Starting wfc are  544 randomized atomic wfcs

     Self-consistent Calculation

     iteration #  1     ecut=    70.00 Ry     beta= 0.70
     Davidson diagonalization with overlap
     ethr =  1.00E-02,  avg # of iterations =  1.0

     total energy              =   -4949.31514261 Ry
     Harris-Foulkes estimate   =   -4981.30019127 Ry
     estimated scf accuracy    <      40.93803620 Ry

[...]

     total energy              =   -4972.10934183 Ry
     Harris-Foulkes estimate   =   -4972.10934183 Ry
     estimated scf accuracy    <          2.6E-09 Ry

     iteration # 22     ecut=    70.00 Ry     beta= 0.70
     Davidson diagonalization with overlap
     ethr =  3.65E-13,  avg # of iterations =  3.0

     End of self-consistent calculation

          k = 0.2500 0.2568 0.0000 ( 82568 PWs)   bands (ev):

   -14.4917 -14.4880 -14.4867 -14.4846 -14.4845 -14.4828 -14.4825 -14.4817
   -14.4788 -14.4709 -14.4683 -14.4672 -14.4650 -14.4643 -14.4587 -14.4578
   -14.4525 -14.4517 -14.4485 -14.4370 -14.4357 -14.4313 -14.4307 -14.4254
   -14.4245 -14.4141 -14.4125 -14.4097 -14.4060 -14.4050 -14.4045 -14.4041
   -14.4021 -14.4016 -14.3991 -14.3988 -14.3983 -14.3970 -14.3965 -14.3954
   -14.3948 -14.3934 -14.3926 -14.3923 -14.3915 -14.3906 -14.3902 -14.3893
   -14.3881 -14.3867 -14.3843 -14.3839 -14.3821 -14.3812 -14.3810 -14.3804
   -14.3788 -14.3752 -14.3739 -14.3701 -14.3694 -14.3677 -14.3649 -14.3631
   -14.3616 -14.3600 -14.3594 -14.3582 -14.3563 -14.3551 -14.3528 -14.3512
   -14.3508 -14.3493 -14.3484 -14.3470 -14.3460 -14.3425 -14.3414 -14.3366
   -10.4957 -10.2962 -10.1660 -10.1656 -10.1203 -10.1200  -9.9299  -9.8054
    -9.6773  -9.6049  -9.6044  -9.6000  -9.5996  -9.5452  -9.4698  -9.3943
    -9.3601  -9.3213  -9.3198  -9.3142  -9.3019  -9.2802  -9.2790  -9.2527
    -9.2430  -9.1717  -9.1490  -9.1144  -9.1139  -9.0842  -9.0836  -9.0664
    -9.0633  -9.0425  -9.0404  -9.0390  -8.9745  -8.9732  -8.9530  -8.9450
    -8.9352  -8.9343  -8.9240  -8.8993  -8.8924  -8.8916  -8.8884  -8.8634
    -8.8251  -8.8248  -8.8236  -8.8222  -8.8205  -8.8048  -8.7842  -8.7827
    -8.7757  -8.7533  -8.7139  -8.7048  -8.7028  -8.6867  -8.6842  -8.6582
    -2.2087  -2.0740  -2.0738  -1.9656  -1.9027  -1.9015  -1.8935  -1.7951
    -1.5989  -1.5536  -1.5520  -1.5046  -1.4737  -1.3608  -1.3585  -1.3060
     2.4199   2.4642   2.4982   2.4990   2.5539   2.5547   2.6751   2.7354
     2.7358   2.7408   2.7500   2.7516   2.7645   2.7705   2.7753   2.8352
     2.8357   2.9407   2.9523   2.9760   2.9762   3.0040   3.1130   3.1806
     3.1809   3.2215   3.2519   3.2523   3.2812   3.3612   3.3865   3.3867
     3.4148   3.4215   3.4223   3.5348   3.5350   3.6271   3.6429   3.7108
     3.7117   3.7683   3.7765   3.7907   3.8969   3.8981   3.8983   3.9700
     3.9954   4.0189   4.0274   4.0419   4.0423   4.0432   4.0440   4.1459
     4.1865   4.2087   4.2095   4.2351   4.2393   4.2400   4.2448   4.2675
     4.2843   4.2856   4.2993   4.3513   4.3650   4.3692   4.3702   4.3759
     4.3819   4.3832   4.4052   4.4083   4.4414   4.4863   4.4928   4.4937
     4.5354   4.5375   4.6136   4.6338   4.6352   4.6442   4.6453   4.6728
     4.6734   4.6803   4.6963   4.7005   4.7138   4.7219   4.7668   4.7697
     4.7708   4.8409   4.8614   4.8618   4.9191   4.9341   5.0019   5.0077
     5.0086   5.0557   5.0568   5.0931   5.0935   5.1129   5.1226   5.1239
     5.1458   5.1462   5.2148   5.2741   5.2868   5.2875   5.2878   5.3616
     5.3687   5.3695   5.3939   5.3981   5.4243   5.5205   5.5208   5.5460
     5.6499   5.7457   5.7463   5.7521   5.8375   5.8538   5.8546   5.8695
     5.8910   5.9900   5.9931   5.9935   6.0039   6.0648   6.0655   6.1336
     6.1359   6.1556   6.2486   6.2715   6.2722   6.2740   6.2747   6.2756
     6.2853   6.2864   6.2960   6.4112   6.4129   6.4138   6.4198   6.4239
     6.4639   6.4645   6.4742   6.4745   6.4929   6.5825   6.5897   6.5917
     6.6964   6.6983   6.7258   6.7915   6.7919   6.7953   6.8126   6.8670
     6.8743   6.8783   6.8794   6.9327   6.9417   6.9467   6.9481   6.9903
     6.9909   7.0643   7.1485   7.2883   7.2892   7.3687   7.3697   7.4769

[...]

          k = 0.2500-0.2534 0.2220 ( 82555 PWs)   bands (ev):

[...]

          k =-0.2500 0.2534 0.2220 ( 82555 PWs)   bands (ev):

   -14.4918 -14.4884 -14.4863 -14.4856 -14.4852 -14.4837 -14.4827 -14.4783
   -14.4767 -14.4734 -14.4711 -14.4640 -14.4631 -14.4609 -14.4594 -14.4569
   -14.4552 -14.4509 -14.4485 -14.4429 -14.4372 -14.4318 -14.4291 -14.4259
   -14.4236 -14.4159 -14.4130 -14.4112 -14.4079 -14.4078 -14.4065 -14.4037
   -14.4021 -14.4009 -14.3987 -14.3981 -14.3974 -14.3970 -14.3962 -14.3951
   -14.3945 -14.3923 -14.3919 -14.3914 -14.3906 -14.3902 -14.3896 -14.3893
   -14.3880 -14.3859 -14.3845 -14.3839 -14.3832 -14.3800 -14.3777 -14.3754
   -14.3752 -14.3737 -14.3718 -14.3715 -14.3697 -14.3686 -14.3665 -14.3662
   -14.3626 -14.3611 -14.3596 -14.3578 -14.3563 -14.3547 -14.3538 -14.3518
   -14.3506 -14.3496 -14.3494 -14.3480 -14.3468 -14.3422 -14.3405 -14.3369
   -10.4778 -10.3426 -10.2008 -10.1568 -10.1060 -10.0291  -9.9442  -9.8709
    -9.6907  -9.6127  -9.6078  -9.5888  -9.5737  -9.4716  -9.4141  -9.4080
    -9.4064  -9.3904  -9.3828  -9.3605  -9.2474  -9.2333  -9.2223  -9.2015
    -9.1967  -9.1783  -9.1655  -9.1335  -9.1221  -9.1191  -9.1114  -9.1104
    -9.0628  -9.0577  -9.0567  -9.0234  -9.0215  -9.0098  -8.9369  -8.9352
    -8.9313  -8.9149  -8.9135  -8.8894  -8.8863  -8.8856  -8.8491  -8.8482
    -8.8423  -8.8393  -8.8076  -8.7955  -8.7951  -8.7835  -8.7829  -8.7714
    -8.7682  -8.7629  -8.7583  -8.7319  -8.7099  -8.7040  -8.6757  -8.6487
    -2.1762  -2.1132  -2.0312  -2.0119  -1.9603  -1.8806  -1.8249  -1.8188
    -1.6248  -1.5611  -1.5203  -1.5112  -1.4301  -1.3977  -1.3363  -1.3240
     2.4310   2.4816   2.5231   2.5560   2.5785   2.5800   2.5823   2.6378
     2.6911   2.7005   2.7257   2.7408   2.7828   2.7905   2.8053   2.8408
     2.8418   2.8598   3.0158   3.0336   3.0565   3.0833   3.1172   3.1267
     3.1429   3.1919   3.1940   3.2120   3.2339   3.2542   3.3120   3.3725
     3.5127   3.5261   3.5409   3.5500   3.5760   3.6014   3.6513   3.6568
     3.6879   3.6973   3.8609   3.8732   3.9122   3.9336   3.9452   3.9529
     3.9849   3.9863   4.0112   4.0476   4.0982   4.1145   4.1275   4.1407
     4.1487   4.1951   4.2019   4.2051   4.2114   4.2309   4.2333   4.2414
     4.2487   4.2526   4.2941   4.3076   4.3416   4.3547   4.3569   4.3831
     4.4238   4.4266   4.4327   4.4449   4.4529   4.4678   4.4963   4.5299
     4.5380   4.5403   4.5405   4.5647   4.5721   4.6679   4.6690   4.6827
     4.6885   4.7128   4.7348   4.7383   4.7503   4.7527   4.7569   4.7638
     4.7917   4.7981   4.8717   4.8751   4.8780   4.9045   4.9329   4.9652
     4.9771   4.9994   5.0318   5.0497   5.0934   5.0958   5.1241   5.1779
     5.1849   5.2026   5.2304   5.2566   5.2667   5.2691   5.2966   5.3009
     5.3746   5.3765   5.4493   5.4666   5.5045   5.5404   5.5444   5.6073
     5.6759   5.6879   5.6924   5.7132   5.7221   5.7489   5.8085   5.8542
     5.8896   5.9406   5.9615   5.9761   5.9883   6.0377   6.0483   6.1433
     6.1517   6.2003   6.2275   6.2536   6.2731   6.2746   6.2797   6.3117
     6.3357   6.3535   6.3584   6.3784   6.4236   6.4329   6.4344   6.4789
     6.4795   6.5014   6.5547   6.5680   6.6152   6.6217   6.6624   6.6655
     6.6903   6.6919   6.6939   6.7223   6.7265   6.7321   6.7477   6.7902
     6.8311   6.8697   6.8874   6.9219   6.9373   6.9420   6.9566   6.9796
     6.9819   7.0791   7.1198   7.2379   7.2880   7.3050   7.4628   7.4680

     highest occupied level (ev):     7.5541

!    total energy              =   -4972.10934183 Ry
     Harris-Foulkes estimate   =   -4972.10934183 Ry
     estimated scf accuracy    <          9.8E-10 Ry

     The total energy is the sum of the following terms:

     one-electron contribution =   -1193.02238232 Ry
     hartree contribution      =    1074.08929290 Ry
     xc contribution           =   -1297.70282742 Ry
     ewald contribution        =   -3555.47342498 Ry

     convergence has been achieved in  22 iterations

     Forces acting on atoms (cartesian axes, Ry/au):

     atom    1 type  1   force =     0.00007740   -0.00032797   -0.01409802
     atom    2 type  1   force =     0.00038204   -0.00015148   -0.01393508
     atom    3 type  1   force =     0.00030271    0.00027562   -0.01382410
     atom    4 type  1   force =    -0.00024954    0.00037760   -0.01401503
     atom    5 type  1   force =     0.00001157    0.00004582   -0.01378127
     atom    6 type  1   force =     0.00000568    0.00001995   -0.01377020
     atom    7 type  1   force =    -0.00000482   -0.00003954   -0.01385930
     atom    8 type  1   force =    -0.00000985   -0.00001414   -0.01384173
     atom    9 type  1   force =    -0.00022529   -0.00014044    0.01412771
     atom   10 type  1   force =     0.00007745   -0.00006727    0.01390917
     atom   11 type  1   force =    -0.00007944    0.00032085    0.01355697
     atom   12 type  1   force =     0.00000975    0.00005871    0.01384658
     atom   13 type  1   force =     0.00016555    0.00002435    0.01412152
     atom   14 type  1   force =    -0.00018628   -0.00012044    0.01413507
     atom   15 type  1   force =     0.00003451    0.00001416    0.01386221
     atom   16 type  1   force =    -0.00002955    0.00007073    0.01381965
     atom   17 type  2   force =    -0.00160712   -0.00436016    0.00192901
     atom   18 type  2   force =     0.00011635   -0.00009137    0.00454560
     atom   19 type  2   force =     0.00005003    0.00034294    0.00444159
     atom   20 type  2   force =     0.00012482    0.00025521    0.00438608
     atom   21 type  2   force =     0.00009963   -0.00003617    0.00463179
     atom   22 type  2   force =    -0.00010560    0.00006491    0.00462973
     atom   23 type  2   force =    -0.00002356    0.00000094    0.00454516
     atom   24 type  2   force =    -0.00001813   -0.00001789    0.00454035
     atom   25 type  2   force =    -0.00018663    0.00012016   -0.00466456
     atom   26 type  2   force =     0.00011305    0.00028173   -0.00439649
     atom   27 type  2   force =     0.00011375   -0.00011010   -0.00462261
     atom   28 type  2   force =    -0.00020325   -0.00035025   -0.00470104
     atom   29 type  2   force =     0.00017797   -0.00012237   -0.00460840
     atom   30 type  2   force =    -0.00009224   -0.00005562   -0.00450419
     atom   31 type  2   force =     0.00001938    0.00004096   -0.00450628
     atom   32 type  2   force =     0.00001436    0.00014159   -0.00437658
     atom   33 type  3   force =     0.00201788    0.00450645    0.00349001
     atom   34 type  3   force =    -0.00018569   -0.00126842    0.00019563
     atom   35 type  3   force =    -0.00023062   -0.00146335    0.00011711
     atom   36 type  3   force =    -0.00026567   -0.00139762    0.00016775
     atom   37 type  3   force =    -0.00018663   -0.00133250    0.00009458
     atom   38 type  3   force =    -0.00018130   -0.00133676    0.00009537
     atom   39 type  3   force =    -0.00016924   -0.00126719    0.00017151
     atom   40 type  3   force =    -0.00015554   -0.00126482    0.00018374
     atom   41 type  3   force =    -0.00014085    0.00125726    0.00031435
     atom   42 type  3   force =    -0.00070478    0.00134684    0.00010678
     atom   43 type  3   force =    -0.00080066    0.00083935    0.00078218
     atom   44 type  3   force =    -0.00030799    0.00172992    0.00021589
     atom   45 type  3   force =    -0.00035366    0.00171983    0.00016922
     atom   46 type  3   force =    -0.00034416    0.00172451    0.00017017
     atom   47 type  3   force =    -0.00032303    0.00172419    0.00018642
     atom   48 type  3   force =    -0.00030586    0.00171947    0.00018751
     atom   49 type  3   force =     0.00016147    0.00136432   -0.00007535
     atom   50 type  3   force =    -0.00008248    0.00078684   -0.00043891
     atom   51 type  3   force =     0.00010916    0.00128692   -0.00012342
     atom   52 type  3   force =     0.00042211    0.00111261    0.00012572
     atom   53 type  3   force =     0.00024419    0.00135715   -0.00016511
     atom   54 type  3   force =     0.00018525    0.00129441   -0.00020831
     atom   55 type  3   force =     0.00014658    0.00124528   -0.00019717
     atom   56 type  3   force =     0.00013520    0.00122735   -0.00021031
     atom   57 type  3   force =     0.00034485   -0.00149371   -0.00012954
     atom   58 type  3   force =     0.00029050   -0.00149574   -0.00035894
     atom   59 type  3   force =     0.00027903   -0.00184305   -0.00016108
     atom   60 type  3   force =     0.00030241   -0.00184253   -0.00009327
[...]
     atom   82 type  3   force =     0.00954179   -0.00604020   -0.00618740
     atom   83 type  3   force =     0.00865607   -0.00531468   -0.00544602
     atom   84 type  3   force =     0.00881470   -0.00544912   -0.00544323
     atom   85 type  3   force =     0.00892683   -0.00534632   -0.00567043
     atom   86 type  3   force =     0.00872484   -0.00535868   -0.00546057
     atom   87 type  3   force =     0.00873066   -0.00540175   -0.00544127
     atom   88 type  3   force =     0.00875507   -0.00539155   -0.00547512
     atom   89 type  3   force =    -0.00933908    0.00597120   -0.00587916
     atom   90 type  3   force =    -0.00851241    0.00529871   -0.00546163
     atom   91 type  3   force =    -0.00832278    0.00501680   -0.00540350
     atom   92 type  3   force =    -0.00832973    0.00501237   -0.00546010
     atom   93 type  3   force =    -0.00857659    0.00510390   -0.00565386
     atom   94 type  3   force =    -0.00838762    0.00508580   -0.00546929
     atom   95 type  3   force =    -0.00839664    0.00510807   -0.00543845
     atom   96 type  3   force =    -0.00842076    0.00509617   -0.00547816

     Total force =     0.088349     Total SCF correction =     0.000091

     Computing stress (Cartesian axis) and pressure

          total   stress  (Ry/bohr**3)                   (kbar)     P=   40.68
   0.00029139   0.00000189   0.00000037         42.86      0.28      0.05
   0.00000189   0.00026790   0.00000049          0.28     39.41      0.07
   0.00000037   0.00000049   0.00027028          0.05      0.07     39.76

     General routines

     Parallel routines

   This run was terminated on:   6:32:23  28Oct2021

   JOB DONE.
Note: The following floating-point exceptions are signalling: IEEE_DIVIDE_BY_ZERO IEEE_UNDERFLOW_FLAG IEEE_DENORMAL
Note: The following floating-point exceptions are signalling: IEEE_DIVIDE_BY_ZERO
Note: The following floating-point exceptions are signalling: IEEE_DIVIDE_BY_ZERO
Note: The following floating-point exceptions are signalling: IEEE_DIVIDE_BY_ZERO