     Program PWSCF v.6.2 (svn rev. 13949:13950) starts on 28Oct2021 at  3:27:32

     R & G space division:  proc/nbgrp/npool/nimage =       4
     Reading input from headeradd_supercell-009.in

     Current dimensions of program PWSCF are:
     Max number of different atomic species (ntypx) = 10
     Max number of k-points (npk) =  40000
     Max angular momentum in pseudopotentials (lmaxx) =  3
     Message from routine iosys:
     minimal I/O required, wf_collect reset to FALSE
               file Bi.pbe-dn-rrkjus_psl.1.0.0.UPF: wavefunction(s)  5D renormalized
               file O.pbe-rrkjus.UPF: wavefunction(s)  2S renormalized

     Subspace diagonalization in iterative solution of the eigenvalue problem:
     a serial algorithm will be used

     bravais-lattice index     =            0
     lattice parameter (alat)  =      19.6286  a.u.
     unit-cell volume          =    8346.2129 (a.u.)^3
     number of atoms/cell      =           96
     number of atomic types    =            3
     number of electrons       =       704.00
     number of Kohn-Sham states=          352
     kinetic-energy cutoff     =      70.0000  Ry
     charge density cutoff     =     280.0000  Ry
     convergence threshold     =      1.0E-09
     mixing beta               =       0.7000
     number of iterations used =            8  plain     mixing
     Exchange-correlation      =  SLA  PW   PBE  PBE ( 1  4  3  4 0 0)

     celldm(1)=  19.628585  celldm(2)=   0.000000  celldm(3)=   0.000000
     celldm(4)=   0.000000  celldm(5)=   0.000000  celldm(6)=   0.000000

     crystal axes: (cart. coord. in units of alat)
               a(1) = (   1.000000   0.000000   0.000000 )
               a(2) = (  -0.006620   0.980010   0.000000 )
               a(3) = (   0.496690   0.490005   1.126138 )

     reciprocal axes: (cart. coord. in units 2 pi/alat)
               b(1) = (  1.000000  0.006755 -0.443995 )
               b(2) = (  0.000000  1.020397 -0.443995 )
               b(3) = (  0.000000 -0.000000  0.887990 )

     PseudoPot. # 1 for Bi read from file:
     /home/uezono/pseudo/Bi.pbe-dn-rrkjus_psl.1.0.0.UPF
     MD5 check sum: f9abe7488ae443f53c935a63d0032572
     Pseudo is Ultrasoft + core correction, Zval = 15.0
     Generated using "atomic" code by A. Dal Corso  v.6.2.2
     Using radial grid of 1283 points,  6 beta functions with:
                l(1) =   0
                l(2) =   0
                l(3) =   1
                l(4) =   1
                l(5) =   2
                l(6) =   2
     Q(r) pseudized with 0 coefficients

     PseudoPot. # 2 for V  read from file:
     /home/uezono/pseudo/V.pbe-n-van.UPF
     MD5 check sum: ff5646be6093ca757d9525862f4bfff1
     Pseudo is Ultrasoft + core correction, Zval =  5.0
     Generated by new atomic code, or converted to UPF format
     Using radial grid of  853 points,  6 beta functions with:
                l(1) =   0
                l(2) =   0
                l(3) =   1
                l(4) =   1
                l(5) =   2
                l(6) =   2
     Q(r) pseudized with  8 coefficients,  rinner =    1.000   1.000   1.000
                                                       1.000   1.000

     PseudoPot. # 3 for O  read from file:
     /home/uezono/pseudo/O.pbe-rrkjus.UPF
     MD5 check sum: fadcf19ee70a498d3030e2e79cf929a4
     Pseudo is Ultrasoft, Zval =  6.0
     Generated by new atomic code, or converted to UPF format
     Using radial grid of 1269 points,  4 beta functions with:
                l(1) =   0
                l(2) =   0
                l(3) =   1
                l(4) =   1
     Q(r) pseudized with 0 coefficients

     atomic species   valence    mass     pseudopotential
        Bi            15.00   208.98040     Bi( 1.00)
        V              5.00    50.94150     V ( 1.00)
        O              6.00    15.99940     O ( 1.00)

     No symmetry found

   Cartesian axes

     site n.     atom                  positions (alat units)
         1           Bi  tau(   1) = (   0.2475177   0.3675039   0.1503395  )
         2           Bi  tau(   2) = (   0.7475177   0.3675039   0.1503395  )
         3           Bi  tau(   3) = (   0.2442079   0.8575091   0.1503395  )
         4           Bi  tau(   4) = (   0.7442079   0.8575091   0.1503395  )
         5           Bi  tau(   5) = (   0.4958628   0.6125065   0.7134087  )
         6           Bi  tau(   6) = (   0.9958628   0.6125065   0.7134087  )
         7           Bi  tau(   7) = (   0.4925531   1.1025117   0.7134087  )
         8           Bi  tau(   8) = (   0.9925531   1.1025117   0.7134087  )
         9           Bi  tau(   9) = (   0.4975177   0.3675039   0.4127297  )
        10           Bi  tau(  10) = (   0.9975177   0.3675039   0.4127297  )
        11           Bi  tau(  11) = (   0.4942079   0.8575091   0.4127297  )
        12           Bi  tau(  12) = (   0.9942079   0.8575091   0.4127297  )
        13           Bi  tau(  13) = (   0.7458628   0.6125065   0.9757990  )
        14           Bi  tau(  14) = (   1.2458628   0.6125065   0.9757990  )
        15           Bi  tau(  15) = (   0.7425531   1.1025117   0.9757990  )
        16           Bi  tau(  16) = (   1.2425531   1.1025117   0.9757990  )
        17           V   tau(  17) = (   0.4991726   0.1225013   0.1463980  )
        18           V   tau(  18) = (   0.9991726   0.1225013   0.1463980  )
        19           V   tau(  19) = (   0.4958628   0.6125065   0.1463980  )
        20           V   tau(  20) = (   0.9958628   0.6125065   0.1463980  )
        21           V   tau(  21) = (   0.7475177   0.3675039   0.7094672  )
        22           V   tau(  22) = (   1.2475177   0.3675039   0.7094672  )
        23           V   tau(  23) = (   0.7442079   0.8575091   0.7094672  )
        24           V   tau(  24) = (   1.2442079   0.8575091   0.7094672  )
        25           V   tau(  25) = (   0.2458628   0.6125065   0.4166712  )
        26           V   tau(  26) = (   0.7458628   0.6125065   0.4166712  )
        27           V   tau(  27) = (   0.2425531   1.1025117   0.4166712  )
        28           V   tau(  28) = (   0.7425531   1.1025117   0.4166712  )
        29           V   tau(  29) = (   0.4942079   0.8575091   0.9797404  )
        30           V   tau(  30) = (   0.9942079   0.8575091   0.9797404  )
        31           V   tau(  31) = (   0.4908982   1.3475143   0.9797404  )
        32           V   tau(  32) = (   0.9908982   1.3475143   0.9797404  )
        33           O   tau(  33) = (   0.5715628   0.2497945   0.2344620  )
        34           O   tau(  34) = (   1.0715696   0.2487756   0.2344620  )
        35           O   tau(  35) = (   0.5682599   0.7387808   0.2344620  )
        36           O   tau(  36) = (   1.0682599   0.7387808   0.2344620  )
        37           O   tau(  37) = (   0.8199148   0.4937782   0.7975312  )
        38           O   tau(  38) = (   1.3199148   0.4937782   0.7975312  )
        39           O   tau(  39) = (   0.8166050   0.9837834   0.7975312  )
        40           O   tau(  40) = (   1.3166050   0.9837834   0.7975312  )
        41           O   tau(  41) = (   0.4234657   0.4862321   0.2344620  )
        42           O   tau(  42) = (   0.9234657   0.4862321   0.2344620  )
        43           O   tau(  43) = (   0.4201560   0.9762373   0.2344620  )
        44           O   tau(  44) = (   0.9201560   0.9762373   0.2344620  )
        45           O   tau(  45) = (   0.6718109   0.7312347   0.7975312  )
        46           O   tau(  46) = (   1.1718109   0.7312347   0.7975312  )
        47           O   tau(  47) = (   0.6685011   1.2212399   0.7975312  )
        48           O   tau(  48) = (   1.1685011   1.2212399   0.7975312  )
        49           O   tau(  49) = (   0.1734657   0.4862321   0.3286072  )
        50           O   tau(  50) = (   0.6734657   0.4862321   0.3286072  )
        51           O   tau(  51) = (   0.1701560   0.9762373   0.3286072  )
        52           O   tau(  52) = (   0.6701560   0.9762373   0.3286072  )
        53           O   tau(  53) = (   0.4218109   0.7312347   0.8916764  )
        54           O   tau(  54) = (   0.9218109   0.7312347   0.8916764  )
        55           O   tau(  55) = (   0.4185011   1.2212399   0.8916764  )
        56           O   tau(  56) = (   0.9185011   1.2212399   0.8916764  )
        57           O   tau(  57) = (   0.3215696   0.2487756   0.3286072  )
        58           O   tau(  58) = (   0.8215696   0.2487756   0.3286072  )
        59           O   tau(  59) = (   0.3182599   0.7387808   0.3286072  )
        60           O   tau(  60) = (   0.8182599   0.7387808   0.3286072  )
[...]
        82           O   tau(  82) = (   0.6193061   0.0583106   0.0570952  )
        83           O   tau(  83) = (   0.1159964   0.5483158   0.0570952  )
        84           O   tau(  84) = (   0.6159964   0.5483158   0.0570952  )
        85           O   tau(  85) = (   0.3676513   0.3033132   0.6201644  )
        86           O   tau(  86) = (   0.8676513   0.3033132   0.6201644  )
        87           O   tau(  87) = (   0.3643415   0.7933184   0.6201644  )
        88           O   tau(  88) = (   0.8643415   0.7933184   0.6201644  )
        89           O   tau(  89) = (   0.3790390   0.1866920   0.0570952  )
        90           O   tau(  90) = (   0.8790390   0.1866920   0.0570952  )
        91           O   tau(  91) = (   0.3757292   0.6766972   0.0570952  )
        92           O   tau(  92) = (   0.8757292   0.6766972   0.0570952  )
        93           O   tau(  93) = (   0.6273841   0.4316946   0.6201644  )
        94           O   tau(  94) = (   1.1273841   0.4316946   0.6201644  )
        95           O   tau(  95) = (   0.6240744   0.9216998   0.6201644  )
        96           O   tau(  96) = (   1.1240744   0.9216998   0.6201644  )

     number of k points=     4
                       cart. coord. in units 2pi/alat
        k(    1) = (   0.2500000   0.2567880   0.0000000), wk =   0.5000000
        k(    2) = (   0.2500000   0.2567880  -0.4439951), wk =   0.5000000
        k(    3) = (   0.2500000  -0.2534107   0.2219976), wk =   0.5000000
        k(    4) = (  -0.2500000   0.2534107   0.2219976), wk =   0.5000000

     Initial potential from superposition of free atoms

     starting charge  703.96725, renormalised to  704.00000
     Starting wfc are  544 randomized atomic wfcs

     Self-consistent Calculation

     iteration #  1     ecut=    70.00 Ry     beta= 0.70
     Davidson diagonalization with overlap
     ethr =  1.00E-02,  avg # of iterations =  1.0

     total energy              =   -4949.30303905 Ry
     Harris-Foulkes estimate   =   -4981.29897962 Ry
     estimated scf accuracy    <      40.95020440 Ry

[...]

     total energy              =   -4972.10929091 Ry
     Harris-Foulkes estimate   =   -4972.10929091 Ry
     estimated scf accuracy    <          1.1E-09 Ry

     iteration # 23     ecut=    70.00 Ry     beta= 0.70
     Davidson diagonalization with overlap
     ethr =  1.58E-13,  avg # of iterations =  3.0

     End of self-consistent calculation

          k = 0.2500 0.2568 0.0000 ( 82568 PWs)   bands (ev):

   -14.4875 -14.4870 -14.4868 -14.4843 -14.4840 -14.4829 -14.4821 -14.4786
   -14.4774 -14.4695 -14.4684 -14.4651 -14.4634 -14.4630 -14.4578 -14.4567
   -14.4516 -14.4503 -14.4473 -14.4357 -14.4338 -14.4310 -14.4294 -14.4237
   -14.4231 -14.4126 -14.4116 -14.4063 -14.4051 -14.4047 -14.4038 -14.4024
   -14.4004 -14.3989 -14.3981 -14.3974 -14.3972 -14.3964 -14.3944 -14.3940
   -14.3932 -14.3927 -14.3916 -14.3915 -14.3910 -14.3898 -14.3893 -14.3884
   -14.3870 -14.3851 -14.3835 -14.3815 -14.3801 -14.3798 -14.3791 -14.3790
   -14.3776 -14.3738 -14.3732 -14.3682 -14.3679 -14.3665 -14.3630 -14.3618
   -14.3597 -14.3593 -14.3586 -14.3569 -14.3545 -14.3530 -14.3525 -14.3510
   -14.3492 -14.3484 -14.3477 -14.3455 -14.3425 -14.3416 -14.3401 -14.3343
   -10.4960 -10.2964 -10.1664 -10.1660 -10.1204 -10.1201  -9.9303  -9.8058
    -9.6780  -9.6048  -9.6044  -9.5997  -9.5993  -9.5450  -9.4696  -9.3934
    -9.3594  -9.3221  -9.3202  -9.3148  -9.3028  -9.2807  -9.2795  -9.2520
    -9.2430  -9.1709  -9.1483  -9.1141  -9.1136  -9.0840  -9.0834  -9.0660
    -9.0636  -9.0423  -9.0404  -9.0394  -8.9747  -8.9734  -8.9538  -8.9458
    -8.9345  -8.9334  -8.9249  -8.8992  -8.8917  -8.8906  -8.8893  -8.8631
    -8.8257  -8.8252  -8.8238  -8.8222  -8.8211  -8.8048  -8.7847  -8.7830
    -8.7766  -8.7530  -8.7149  -8.7057  -8.7036  -8.6874  -8.6854  -8.6590
    -2.2088  -2.0741  -2.0739  -1.9657  -1.9019  -1.9012  -1.8931  -1.7947
    -1.5975  -1.5524  -1.5509  -1.5033  -1.4717  -1.3588  -1.3565  -1.3042
     2.4199   2.4645   2.4986   2.4993   2.5541   2.5550   2.6750   2.7355
     2.7360   2.7410   2.7507   2.7522   2.7648   2.7712   2.7756   2.8354
     2.8361   2.9410   2.9518   2.9761   2.9763   3.0044   3.1130   3.1807
     3.1809   3.2215   3.2517   3.2520   3.2808   3.3618   3.3861   3.3863
     3.4145   3.4221   3.4229   3.5347   3.5349   3.6264   3.6424   3.7115
     3.7124   3.7693   3.7760   3.7914   3.8966   3.8979   3.8983   3.9699
     3.9951   4.0185   4.0277   4.0425   4.0432   4.0441   4.0444   4.1465
     4.1865   4.2091   4.2099   4.2363   4.2399   4.2410   4.2456   4.2681
     4.2848   4.2861   4.3016   4.3518   4.3653   4.3694   4.3705   4.3765
     4.3826   4.3839   4.4050   4.4087   4.4423   4.4873   4.4935   4.4943
     4.5363   4.5386   4.6139   4.6349   4.6365   4.6439   4.6450   4.6729
     4.6736   4.6798   4.6966   4.7001   4.7134   4.7216   4.7675   4.7698
     4.7708   4.8420   4.8612   4.8616   4.9200   4.9342   5.0015   5.0074
     5.0083   5.0559   5.0570   5.0931   5.0936   5.1133   5.1228   5.1239
     5.1456   5.1460   5.2146   5.2734   5.2868   5.2873   5.2879   5.3623
     5.3683   5.3691   5.3936   5.3976   5.4236   5.5201   5.5203   5.5454
     5.6495   5.7456   5.7462   5.7515   5.8381   5.8538   5.8543   5.8708
     5.8906   5.9897   5.9928   5.9932   6.0036   6.0646   6.0653   6.1330
     6.1354   6.1559   6.2483   6.2713   6.2721   6.2737   6.2746   6.2753
     6.2848   6.2858   6.2955   6.4114   6.4131   6.4142   6.4193   6.4233
     6.4647   6.4652   6.4740   6.4746   6.4923   6.5825   6.5890   6.5907
     6.6958   6.6977   6.7265   6.7914   6.7918   6.7955   6.8121   6.8680
     6.8740   6.8791   6.8798   6.9328   6.9424   6.9467   6.9480   6.9902
     6.9908   7.0639   7.1491   7.2889   7.2898   7.3693   7.3702   7.4779

[...]

          k = 0.2500-0.2534 0.2220 ( 82555 PWs)   bands (ev):

[...]

          k =-0.2500 0.2534 0.2220 ( 82555 PWs)   bands (ev):

   -14.4878 -14.4872 -14.4859 -14.4856 -14.4853 -14.4830 -14.4810 -14.4768
   -14.4751 -14.4728 -14.4698 -14.4626 -14.4614 -14.4594 -14.4585 -14.4559
   -14.4542 -14.4496 -14.4474 -14.4415 -14.4356 -14.4308 -14.4283 -14.4242
   -14.4221 -14.4147 -14.4120 -14.4089 -14.4070 -14.4062 -14.4053 -14.4027
   -14.3997 -14.3987 -14.3979 -14.3975 -14.3964 -14.3960 -14.3940 -14.3938
   -14.3928 -14.3922 -14.3919 -14.3907 -14.3901 -14.3894 -14.3880 -14.3875
   -14.3863 -14.3853 -14.3835 -14.3821 -14.3805 -14.3785 -14.3758 -14.3747
   -14.3736 -14.3723 -14.3712 -14.3702 -14.3678 -14.3671 -14.3652 -14.3648
   -14.3615 -14.3597 -14.3570 -14.3567 -14.3549 -14.3539 -14.3528 -14.3508
   -14.3498 -14.3494 -14.3483 -14.3463 -14.3434 -14.3407 -14.3397 -14.3344
   -10.4781 -10.3428 -10.2013 -10.1569 -10.1065 -10.0292  -9.9444  -9.8711
    -9.6906  -9.6134  -9.6074  -9.5885  -9.5732  -9.4718  -9.4149  -9.4081
    -9.4068  -9.3898  -9.3833  -9.3604  -9.2467  -9.2338  -9.2227  -9.2014
    -9.1968  -9.1780  -9.1654  -9.1334  -9.1208  -9.1184  -9.1110  -9.1099
    -9.0625  -9.0582  -9.0571  -9.0240  -9.0221  -9.0101  -8.9368  -8.9350
    -8.9317  -8.9146  -8.9136  -8.8895  -8.8862  -8.8851  -8.8487  -8.8475
    -8.8416  -8.8400  -8.8080  -8.7961  -8.7951  -8.7844  -8.7836  -8.7723
    -8.7685  -8.7636  -8.7592  -8.7328  -8.7104  -8.7049  -8.6766  -8.6496
    -2.1762  -2.1134  -2.0313  -2.0122  -1.9595  -1.8803  -1.8251  -1.8182
    -1.6229  -1.5600  -1.5190  -1.5103  -1.4281  -1.3958  -1.3344  -1.3223
     2.4310   2.4820   2.5241   2.5561   2.5779   2.5804   2.5825   2.6386
     2.6913   2.7009   2.7259   2.7412   2.7827   2.7904   2.8050   2.8417
     2.8426   2.8598   3.0158   3.0335   3.0567   3.0830   3.1173   3.1268
     3.1426   3.1919   3.1951   3.2116   3.2338   3.2544   3.3125   3.3725
     3.5134   3.5258   3.5411   3.5498   3.5762   3.6007   3.6513   3.6565
     3.6880   3.6971   3.8617   3.8735   3.9119   3.9339   3.9452   3.9526
     3.9845   3.9870   4.0120   4.0484   4.0984   4.1153   4.1286   4.1411
     4.1482   4.1960   4.2022   4.2058   4.2128   4.2319   4.2346   4.2428
     4.2504   4.2522   4.2942   4.3076   4.3409   4.3550   4.3571   4.3828
     4.4249   4.4271   4.4332   4.4447   4.4533   4.4692   4.4974   4.5297
     4.5392   4.5406   4.5431   4.5654   4.5734   4.6687   4.6695   4.6827
     4.6894   4.7125   4.7346   4.7383   4.7500   4.7534   4.7570   4.7634
     4.7918   4.7975   4.8720   4.8751   4.8774   4.9043   4.9321   4.9656
     4.9769   4.9991   5.0320   5.0502   5.0930   5.0951   5.1235   5.1777
     5.1856   5.2026   5.2299   5.2570   5.2662   5.2684   5.2959   5.3007
     5.3748   5.3762   5.4500   5.4655   5.5038   5.5403   5.5445   5.6071
     5.6763   5.6879   5.6930   5.7133   5.7216   5.7494   5.8082   5.8544
     5.8890   5.9407   5.9607   5.9761   5.9887   6.0378   6.0479   6.1435
     6.1513   6.2005   6.2279   6.2530   6.2725   6.2746   6.2803   6.3113
     6.3349   6.3530   6.3586   6.3776   6.4243   6.4330   6.4339   6.4783
     6.4794   6.5013   6.5551   6.5677   6.6151   6.6212   6.6619   6.6647
     6.6908   6.6923   6.6936   6.7215   6.7263   6.7319   6.7482   6.7899
     6.8300   6.8701   6.8876   6.9218   6.9376   6.9428   6.9569   6.9793
     6.9816   7.0799   7.1206   7.2383   7.2885   7.3059   7.4636   7.4688

     highest occupied level (ev):     7.5549

!    total energy              =   -4972.10929091 Ry
     Harris-Foulkes estimate   =   -4972.10929091 Ry
     estimated scf accuracy    <          3.5E-10 Ry

     The total energy is the sum of the following terms:

     one-electron contribution =   -1193.19956095 Ry
     hartree contribution      =    1074.18402194 Ry
     xc contribution           =   -1297.69661330 Ry
     ewald contribution        =   -3555.39713861 Ry

     convergence has been achieved in  23 iterations

     Forces acting on atoms (cartesian axes, Ry/au):

     atom    1 type  1   force =    -0.00008003    0.00033126   -0.01362940
     atom    2 type  1   force =    -0.00036839    0.00017096   -0.01379578
     atom    3 type  1   force =    -0.00030249   -0.00026857   -0.01390023
     atom    4 type  1   force =     0.00024299   -0.00037010   -0.01371092
     atom    5 type  1   force =    -0.00001493   -0.00003994   -0.01394116
     atom    6 type  1   force =    -0.00000935   -0.00001497   -0.01395103
     atom    7 type  1   force =     0.00000069    0.00004450   -0.01386337
     atom    8 type  1   force =     0.00000608    0.00001961   -0.01388063
     atom    9 type  1   force =     0.00022150    0.00015154    0.01361562
     atom   10 type  1   force =    -0.00007311    0.00006434    0.01381351
     atom   11 type  1   force =     0.00008179   -0.00032405    0.01416069
     atom   12 type  1   force =    -0.00000662   -0.00006211    0.01387440
     atom   13 type  1   force =    -0.00016102   -0.00002764    0.01360634
     atom   14 type  1   force =     0.00018785    0.00011546    0.01359207
     atom   15 type  1   force =    -0.00003059   -0.00001759    0.01386221
     atom   16 type  1   force =     0.00003226   -0.00007361    0.01390458
     atom   17 type  2   force =     0.00149347    0.00420609    0.00702071
     atom   18 type  2   force =    -0.00012374    0.00008912    0.00453033
     atom   19 type  2   force =    -0.00006021   -0.00034651    0.00463758
     atom   20 type  2   force =    -0.00013112   -0.00025796    0.00468973
     atom   21 type  2   force =    -0.00010502    0.00003230    0.00444823
     atom   22 type  2   force =     0.00009711   -0.00006862    0.00444892
     atom   23 type  2   force =     0.00001441   -0.00000375    0.00453440
     atom   24 type  2   force =     0.00000809    0.00001579    0.00453936
     atom   25 type  2   force =     0.00019325   -0.00011509   -0.00441446
     atom   26 type  2   force =    -0.00010592   -0.00027732   -0.00468127
     atom   27 type  2   force =    -0.00010548    0.00011269   -0.00445319
     atom   28 type  2   force =     0.00021531    0.00035127   -0.00437234
     atom   29 type  2   force =    -0.00016773    0.00012522   -0.00447099
     atom   30 type  2   force =     0.00009896    0.00005834   -0.00457610
     atom   31 type  2   force =    -0.00001157   -0.00003465   -0.00457343
     atom   32 type  2   force =    -0.00000788   -0.00013244   -0.00470303
     atom   33 type  3   force =    -0.00224533   -0.00703679   -0.00300565
     atom   34 type  3   force =    -0.00015086   -0.00128624    0.00014466
     atom   35 type  3   force =    -0.00010628   -0.00109105    0.00022357
     atom   36 type  3   force =    -0.00007149   -0.00115765    0.00017260
     atom   37 type  3   force =    -0.00015030   -0.00122343    0.00024471
     atom   38 type  3   force =    -0.00015580   -0.00121854    0.00024417
     atom   39 type  3   force =    -0.00016789   -0.00128806    0.00016790
     atom   40 type  3   force =    -0.00018169   -0.00129058    0.00015543
     atom   41 type  3   force =    -0.00053636    0.00214291    0.00011134
     atom   42 type  3   force =     0.00002841    0.00204550    0.00031813
     atom   43 type  3   force =     0.00012172    0.00254662   -0.00035334
     atom   44 type  3   force =    -0.00036649    0.00166510    0.00021020
     atom   45 type  3   force =    -0.00031977    0.00167585    0.00025587
     atom   46 type  3   force =    -0.00032954    0.00167145    0.00025457
     atom   47 type  3   force =    -0.00035043    0.00167113    0.00023835
     atom   48 type  3   force =    -0.00036799    0.00167563    0.00023703
     atom   49 type  3   force =     0.00017446    0.00119219   -0.00026404
     atom   50 type  3   force =     0.00042287    0.00177696    0.00010248
     atom   51 type  3   force =     0.00022733    0.00127071   -0.00021635
     atom   52 type  3   force =    -0.00008364    0.00144431   -0.00046353
     atom   53 type  3   force =     0.00009344    0.00120074   -0.00017499
     atom   54 type  3   force =     0.00015220    0.00126338   -0.00013120
     atom   55 type  3   force =     0.00019032    0.00131203   -0.00014364
     atom   56 type  3   force =     0.00020153    0.00133023   -0.00013046
     atom   57 type  3   force =     0.00033479   -0.00189789   -0.00029852
     atom   58 type  3   force =     0.00037879   -0.00189930   -0.00006785
     atom   59 type  3   force =     0.00039419   -0.00154976   -0.00026434
     atom   60 type  3   force =     0.00037188   -0.00154953   -0.00033254
[...]
     atom   82 type  3   force =     0.00796843   -0.00472997   -0.00474717
     atom   83 type  3   force =     0.00884118   -0.00544678   -0.00547653
     atom   84 type  3   force =     0.00868639   -0.00531430   -0.00548021
     atom   85 type  3   force =     0.00857039   -0.00541558   -0.00525134
     atom   86 type  3   force =     0.00877248   -0.00540251   -0.00546116
     atom   87 type  3   force =     0.00876839   -0.00535986   -0.00548175
     atom   88 type  3   force =     0.00874359   -0.00536975   -0.00544728
     atom   89 type  3   force =    -0.00750207    0.00423804   -0.00507084
     atom   90 type  3   force =    -0.00831836    0.00489309   -0.00548643
     atom   91 type  3   force =    -0.00851020    0.00517595   -0.00554640
     atom   92 type  3   force =    -0.00850204    0.00517986   -0.00548962
     atom   93 type  3   force =    -0.00825686    0.00508844   -0.00529613
     atom   94 type  3   force =    -0.00844448    0.00510591   -0.00547901
     atom   95 type  3   force =    -0.00843468    0.00508460   -0.00550933
     atom   96 type  3   force =    -0.00841033    0.00509604   -0.00546939

     Total force =     0.087807     Total SCF correction =     0.000084

     Computing stress (Cartesian axis) and pressure

          total   stress  (Ry/bohr**3)                   (kbar)     P=   40.49
   0.00029074   0.00000097  -0.00000028         42.77      0.14     -0.04
   0.00000097   0.00026564  -0.00000051          0.14     39.08     -0.07
  -0.00000028  -0.00000051   0.00026928         -0.04     -0.07     39.61

     General routines

     Parallel routines

   This run was terminated on:   5: 1:46  28Oct2021

   JOB DONE.
Note: The following floating-point exceptions are signalling: IEEE_DIVIDE_BY_ZERO
Note: The following floating-point exceptions are signalling: IEEE_DIVIDE_BY_ZERO
Note: The following floating-point exceptions are signalling: IEEE_DIVIDE_BY_ZERO
Note: The following floating-point exceptions are signalling: IEEE_DIVIDE_BY_ZERO IEEE_UNDERFLOW_FLAG IEEE_DENORMAL